LAMMPS (27 Jun 2024)
  using 8 OpenMP thread(s) per MPI task
package omp 0
using multi-threaded neighbor list subroutines
# LAMMPS input script by Simon Gravelle
# For LAMMPS tutorials, see https://lammpstutorials.github.io
# Last tested using the 27Jun2024 LAMMPS version

variable Nstep equal 2500000
variable mu_K equal -4400
variable mu_kcal_mol equal ${mu_K}*0.0019872041
variable mu_kcal_mol equal -4400*0.0019872041
print "mu equal ${mu_kcal_mol}"
mu equal -8.74369804
variable tfac equal 5.0/3.0
variable Nattempt equal 10

units real
boundary p p p
atom_style full
pair_style lj/cut/coul/long 12
kspace_style ewald 1.0e-5
bond_style harmonic
angle_style harmonic
pair_modify mix geometric
special_bonds lj 0.0 0.0 0.0 coul 0.0 0.0 0.0 angle yes

read_data box.data
Reading data file ...
  orthogonal box = (-25 -25 -25) to (25 25 25)
  1 by 1 by 1 MPI processor grid
  reading atom labelmap ...
  reading bond labelmap ...
  reading angle labelmap ...
  reading atoms ...
  150 atoms
  reading velocities ...
  150 velocities
  scanning bonds ...
  1 = max bonds/atom
  scanning angles ...
  1 = max angles/atom
  orthogonal box = (-25 -25 -25) to (25 25 25)
  1 by 1 by 1 MPI processor grid
  reading bonds ...
  100 bonds
  reading angles ...
  50 angles
Finding 1-2 1-3 1-4 neighbors ...
  special bond factors lj:    0        0        0       
  special bond factors coul:  0        0        0       
     2 = max # of 1-2 neighbors
     1 = max # of 1-3 neighbors
     1 = max # of 1-4 neighbors
  100 = # of 1-3 neighbors before angle trim
  100 = # of 1-3 neighbors after angle trim
     2 = max # of special neighbors
  special bonds CPU = 0.000 seconds
  read_data CPU = 0.015 seconds
labelmap atom 1 O 2 C
labelmap bond 1 C-O
labelmap angle 1 O-C-O

group CO2 type C O
150 atoms in group CO2
include parm.lmp
# LAMMPS parameter file for H2O SPCE water model
# For conversion from K to kcal / mol, multiply
# by Boltzmann = 0.0019872041 kcal / (mol * K)

mass O 15.9994
mass C 12.0110

pair_coeff O O 0.164858 3.011
pair_coeff C C 0.05894 2.789

bond_coeff C-O 0.0 1.18 # rigid

angle_coeff O-C-O 0.0 180.0 # rigid

molecule CO2mol CO2.mol
Read molecule template CO2mol:
# LAMMPS molecule file for carbondioxide
  1 molecules
  0 fragments
  3 atoms with max type 2
  2 bonds with max type 1
  1 angles with max type 1
  0 dihedrals with max type 0
  0 impropers with max type 0

fix mynvt CO2 rigid/nvt/small molecule temp 300 300 100 mol CO2mol
  create bodies CPU = 0.000 seconds
  50 rigid bodies with 150 atoms
  1.18 = max distance from body owner to body atom
thermo 1000

run 2000

CITE-CITE-CITE-CITE-CITE-CITE-CITE-CITE-CITE-CITE-CITE-CITE-CITE

Your simulation uses code contributions which should be cited:

- Type Label Framework: https://doi.org/10.1021/acs.jpcb.3c08419

@Article{Gissinger24,
 author = {Jacob R. Gissinger, Ilia Nikiforov, Yaser Afshar, Brendon Waters, Moon-ki Choi, Daniel S. Karls, Alexander Stukowski, Wonpil Im, Hendrik Heinz, Axel Kohlmeyer, and Ellad B. Tadmor},
 title = {Type Label Framework for Bonded Force Fields in LAMMPS},
 journal = {J. Phys. Chem. B},
 year =    2024,
 volume =  128,
 number =  13,
 pages =   {3282â€“-3297}
}

CITE-CITE-CITE-CITE-CITE-CITE-CITE-CITE-CITE-CITE-CITE-CITE-CITE

Ewald initialization ...
  using 12-bit tables for long-range coulomb (src/kspace.cpp:342)
  G vector (1/distance) = 0.20077039
  estimated absolute RMS force accuracy = 0.0039018044
  estimated relative force accuracy = 1.1750168e-05
  KSpace vectors: actual max1d max3d = 1054 8 2456
                  kxmax kymax kzmax  = 8 8 8
Generated 1 of 1 mixed pair_coeff terms from geometric mixing rule
Last active /omp style is kspace_style ewald/omp
Neighbor list info ...
  update: every = 1 steps, delay = 0 steps, check = yes
  max neighbors/atom: 2000, page size: 100000
  master list distance cutoff = 14
  ghost atom cutoff = 14
  binsize = 7, bins = 8 8 8
  1 neighbor lists, perpetual/occasional/extra = 1 0 0
  (1) pair lj/cut/coul/long/omp, perpetual
      attributes: half, newton on, omp
      pair build: half/bin/newton/omp
      stencil: half/bin/3d
      bin: standard
Per MPI rank memory allocation (min/avg/max) = 31.23 | 31.23 | 31.23 Mbytes
   Step          Temp          E_pair         E_mol          TotEng         Press     
         0   0             -1.3802283      0             -1.3802283     -1.9091073    
      1000   244.97829     -2.8147982      0              57.307781      2.9372644    
      2000   217.84894     -2.3855577      0              51.078935      19.431984    
Loop time of 0.613147 on 8 procs for 2000 steps with 150 atoms

Performance: 281.825 ns/day, 0.085 hours/ns, 3261.861 timesteps/s, 489.279 katom-step/s
796.5% CPU use with 1 MPI tasks x 8 OpenMP threads

MPI task timing breakdown:
Section |  min time  |  avg time  |  max time  |%varavg| %total
---------------------------------------------------------------
Pair    | 0.0096545  | 0.0096545  | 0.0096545  |   0.0 |  1.57
Bond    | 0.0094057  | 0.0094057  | 0.0094057  |   0.0 |  1.53
Kspace  | 0.51558    | 0.51558    | 0.51558    |   0.0 | 84.09
Neigh   | 0.00078809 | 0.00078809 | 0.00078809 |   0.0 |  0.13
Comm    | 0.0054626  | 0.0054626  | 0.0054626  |   0.0 |  0.89
Output  | 2.4289e-05 | 2.4289e-05 | 2.4289e-05 |   0.0 |  0.00
Modify  | 0.071056   | 0.071056   | 0.071056   |   0.0 | 11.59
Other   |            | 0.001179   |            |       |  0.19

Nlocal:            150 ave         150 max         150 min
Histogram: 1 0 0 0 0 0 0 0 0 0
Nghost:            444 ave         444 max         444 min
Histogram: 1 0 0 0 0 0 0 0 0 0
Neighs:           1106 ave        1106 max        1106 min
Histogram: 1 0 0 0 0 0 0 0 0 0

Total # of neighbors = 1106
Ave neighs/atom = 7.3733333
Ave special neighs/atom = 2
Neighbor list builds = 27
Dangerous builds = 0

fix fgcmc CO2 gcmc 100 ${Nattempt} 0 0 25899 300 ${mu_kcal_mol} 0.1     mol CO2mol tfac_insert ${tfac} full_energy rigid mynvt
fix fgcmc CO2 gcmc 100 10 0 0 25899 300 ${mu_kcal_mol} 0.1     mol CO2mol tfac_insert ${tfac} full_energy rigid mynvt
fix fgcmc CO2 gcmc 100 10 0 0 25899 300 -8.74369804 0.1     mol CO2mol tfac_insert ${tfac} full_energy rigid mynvt
fix fgcmc CO2 gcmc 100 10 0 0 25899 300 -8.74369804 0.1     mol CO2mol tfac_insert 1.66666666666667 full_energy rigid mynvt

variable carbon atom "type==2"
group carbon dynamic all var carbon
dynamic group carbon defined
variable nC equal count(carbon)
fix myat1 all ave/time 10 10 1000 v_nC file number_CO2.dat
variable density equal v_nC*(2*15.9994+12.011)/vol/6.022e23*(1e8)^3
fix myat2 all ave/time 10 10 1000 v_density file density_CO2.dat
compute press all pressure thermo_temp
fix myat3 all ave/time 10 100 1000 c_press file pressure_CO2.dat
thermo_style custom step temp etotal v_nC

run ${Nstep}
run 2500000
Ewald initialization ...
  using 12-bit tables for long-range coulomb (src/kspace.cpp:342)
  G vector (1/distance) = 0.20077039
  estimated absolute RMS force accuracy = 0.0039018044
  estimated relative force accuracy = 1.1750168e-05
  KSpace vectors: actual max1d max3d = 1054 8 2456
                  kxmax kymax kzmax  = 8 8 8
Generated 1 of 1 mixed pair_coeff terms from geometric mixing rule
Last active /omp style is kspace_style ewald/omp
0 atoms in group FixGCMC:gcmc_exclusion_group:fgcmc
0 atoms in group FixGCMC:rotation_gas_atoms:fgcmc
WARNING: Neighbor exclusions used with KSpace solver may give inconsistent Coulombic energies (src/neighbor.cpp:658)
Per MPI rank memory allocation (min/avg/max) = 31.23 | 31.23 | 31.23 Mbytes
   Step          Temp          TotEng          v_nC     
      2000   217.84894      51.078935      50           
      3000   326.86944      79.967007      24           
      4000   198.38156      48.688209      27           
      5000   167.04693      40.828277      11           
      6000   138.54242      33.837323      16           
      7000   172.49642      42.256733      15           
      8000   170.37484      41.251429      14           
      9000   179.8375       43.857298      17           
     10000   184.46877      45.174259      15           
     11000   152.25607      37.199737      12           
     12000   190.37168      45.880942      21           
     13000   121.93475      29.415482      12           
     14000   176.06798      43.159009      14           
     15000   140.47292      34.464435      14           
     16000   201.90977      49.399621      17           
     17000   208.96949      51.245043      18           
     18000   171.1027       41.037983      21           
     19000   301.55572      72.672733      16           
     20000   245.30307      60.202004      12           
     21000   241.78405      59.221566      19           
     22000   166.24752      40.745228      13           
     23000   224.60114      53.89394       16           
     24000   171.77906      42.132528      11           
     25000   115.36395      28.058177      11           
     26000   184.42859      45.236216      18           
     27000   109.24827      26.721192      12           
     28000   233.81354      57.294494      15           
     29000   202.42294      49.66334       14           
     30000   196.07934      46.744835      16           
     31000   293.85818      71.932906      14           
     32000   333.956        81.187543      20           
     33000   156.32492      37.912865      12           
     34000   233.75491      56.988761      17           
     35000   292.21954      71.415995      20           
     36000   323.66614      79.36466       15           
     37000   166.96552      40.859137      10           
     38000   215.70556      53.108289      18           
     39000   189.93507      46.572622      12           
     40000   167.75511      40.828216      21           
     41000   183.47868      44.165345      18           
     42000   199.71148      48.945099      16           
     43000   195.3386       47.858552      17           
     44000   111.29933      27.255478      12           
     45000   213.04493      52.246399      14           
     46000   207.02206      50.326216      16           
     47000   215.56835      51.500477      22           
     48000   209.01551      50.564646      17           
     49000   310.73114      75.763645      15           
     50000   146.78486      36.008896      12           
     51000   305.0155       74.836443      11           
     52000   72.155228      17.636948      10           
     53000   214.91593      51.731183      17           
     54000   213.02775      52.205772      15           
     55000   189.69153      46.079277      19           
     56000   225.77806      55.369534      16           
     57000   160.56355      39.333478      16           
     58000   154.20612      37.755453      12           
     59000   162.93921      39.631855      17           
     60000   168.18846      41.255348      14           
     61000   199.5077       48.537449      19           
     62000   177.65427      43.56692       13           
     63000   161.20488      39.558571      12           
     64000   232.23042      56.743824      13           
     65000   178.3559       43.691999      11           
     66000   259.43552      63.641509      12           
     67000   161.75892      39.679389      14           
     68000   178.15237      43.677799      11           
     69000   176.26416      42.697946      13           
     70000   239.65528      58.114644      20           
     71000   261.65402      64.186458      13           
     72000   274.85053      66.773145      17           
     73000   187.23275      45.769879      16           
     74000   141.89061      34.55633       11           
     75000   166.18883      39.732122      20           
     76000   162.2416       39.721986      19           
     77000   167.49045      41.093096      13           
     78000   208.56225      50.954231      18           
     79000   295.72058      72.536303      14           
     80000   188.73427      46.25655       19           
     81000   194.03099      46.746042      19           
     82000   198.67417      47.69681       17           
     83000   288.96756      70.69212       10           
     84000   179.66226      43.441088      13           
     85000   307.78939      75.465715      16           
     86000   154.42283      37.089274      21           
     87000   252.57737      61.226467      16           
     88000   181.71323      43.692151      20           
     89000   127.66801      30.628972      12           
     90000   133.13928      32.379406      9            
     91000   207.49339      50.497734      17           
     92000   184.46732      44.334842      14           
     93000   143.48169      35.006793      18           
     94000   228.0625       55.378163      19           
     95000   268.21885      65.773146      19           
     96000   150.9489       36.247589      14           
     97000   305.7854       74.811159      9            
     98000   197.45414      48.13755       21           
     99000   175.52089      43.047846      14           
    100000   213.29265      51.936451      17           
    101000   192.66491      46.535788      17           
    102000   192.30159      46.943144      16           
    103000   171.93691      42.080454      8            
    104000   186.76694      45.812201      13           
    105000   186.80113      45.803022      14           
    106000   171.47296      41.081652      23           
    107000   223.97581      53.401726      22           
    108000   280.89974      68.890794      14           
    109000   202.42726      49.374591      18           
    110000   188.64817      46.006932      22           
    111000   221.34708      54.228573      12           
    112000   148.24284      36.225315      7            
    113000   168.67876      41.203746      14           
    114000   187.17916      45.668108      11           
    115000   193.65573      47.214102      16           
    116000   229.91774      56.019298      18           
    117000   144.75171      35.496142      9            
    118000   254.8867       62.134822      18           
    119000   165.16504      40.519327      10           
    120000   182.57608      44.707975      14           
    121000   110.86175      27.197411      9            
    122000   137.78473      32.550301      17           
    123000   182.75129      44.813886      14           
    124000   121.7056       29.865306      12           
    125000   186.63499      45.377537      20           
    126000   298.91996      72.82818       15           
    127000   138.84933      34.028107      17           
    128000   297.3913       71.620276      17           
    129000   267.44101      64.122464      23           
    130000   152.96189      37.409052      17           
    131000   127.30842      31.233388      11           
    132000   178.82417      43.599495      16           
    133000   186.79697      45.792362      19           
    134000   208.15244      50.895938      19           
    135000   196.31823      47.757326      20           
    136000   301.87048      73.009406      15           
    137000   234.29174      57.468878      12           
    138000   175.08188      42.438888      23           
    139000   210.56692      51.668515      13           
    140000   308.65843      75.609292      15           
    141000   149.85533      36.764591      11           
    142000   213.36642      51.590896      14           
    143000   271.43562      66.296113      22           
    144000   255.75502      61.883997      19           
    145000   130.69848      31.872057      11           
    146000   210.96545      51.755622      17           
    147000   200.91727      49.188952      16           
    148000   209.22459      51.295917      21           
    149000   245.68015      60.226084      15           
    150000   164.68001      39.305866      18           
    151000   182.61407      44.633899      17           
    152000   188.41923      45.662628      18           
    153000   226.96929      53.748455      25           
    154000   183.04897      44.550928      14           
    155000   336.92362      82.534622      19           
    156000   203.0316       49.254111      20           
    157000   174.8984       42.275567      22           
    158000   205.14167      49.987823      18           
    159000   320.0933       78.487296      13           
    160000   267.81845      65.679637      13           
    161000   144.3085       35.406294      11           
    162000   179.53183      44.050509      14           
    163000   198.93055      48.769509      13           
    164000   223.97794      54.888941      17           
    165000   177.36059      42.493707      15           
    166000   294.24783      71.2147        13           
    167000   288.90958      69.824356      22           
    168000   215.65407      52.528215      20           
    169000   202.70909      48.561651      24           
    170000   182.40628      44.127763      12           
    171000   129.65305      31.807729      12           
    172000   199.00345      47.218937      17           
    173000   157.19404      38.495231      10           
    174000   140.13681      34.062174      11           
    175000   193.90657      46.951661      18           
    176000   203.20052      48.783266      16           
    177000   196.99805      48.250704      15           
    178000   173.84144      42.258045      18           
    179000   159.54839      39.039526      18           
    180000   174.22261      40.961689      26           
    181000   269.62765      65.169935      18           
    182000   325.73437      79.831612      12           
    183000   216.86536      52.105971      20           
    184000   273.80838      67.136121      15           
    185000   173.66112      42.603476      12           
    186000   164.88004      40.435418      11           
    187000   233.22485      57.078218      16           
    188000   213.29542      51.65016       11           
    189000   136.51514      33.45624       12           
    190000   190.9063       46.457411      20           
    191000   195.32751      47.707414      17           
    192000   249.93363      60.063321      21           
    193000   299.98196      72.403796      25           
    194000   199.18929      48.636514      13           
    195000   193.44182      47.46504       9            
    196000   336.43916      82.433382      12           
    197000   208.87382      50.018449      17           
    198000   227.84892      55.90744       10           
    199000   166.8513       40.77666       24           
    200000   129.4419       31.416677      17           
    201000   174.23233      42.66557       16           
    202000   194.82203      47.349127      16           
    203000   112.4065       27.203029      15           
    204000   198.66574      48.655401      11           
    205000   246.76574      60.17967       14           
    206000   184.78266      44.594598      19           
    207000   222.08966      52.419237      14           
    208000   269.53617      65.269136      14           
    209000   141.1663       33.707545      12           
    210000   188.26116      46.1902        11           
    211000   179.41945      41.424817      22           
    212000   286.06692      70.165347      14           
    213000   174.98626      42.931144      13           
    214000   179.91389      44.02081       19           
    215000   187.66731      45.193188      15           
    216000   131.35563      32.204399      9            
    217000   204.34317      49.789066      15           
    218000   131.96973      32.361656      21           
    219000   242.63474      59.477868      21           
    220000   181.54808      44.407819      20           
    221000   190.35161      46.168287      19           
    222000   177.33674      43.51339       9            
    223000   72.475324      17.775572      9            
    224000   182.21409      44.026126      13           
    225000   246.08006      59.161891      20           
    226000   165.13591      40.204123      14           
    227000   207.42706      49.894323      16           
    228000   248.26868      59.993777      19           
    229000   202.92212      48.480268      21           
    230000   237.39021      58.076194      17           
    231000   193.60424      46.866383      17           
    232000   94.781193      23.255979      7            
    233000   184.81323      45.335127      15           
    234000   187.68459      45.104073      19           
    235000   171.17294      41.964603      10           
    236000   200.08556      49.070323      12           
    237000   176.69881      43.243779      12           
    238000   138.86429      33.751572      18           
    239000   169.06899      41.483361      17           
    240000   172.89543      42.308131      20           
    241000   189.7256       45.465416      16           
    242000   192.21828      46.917207      15           
    243000   167.08579      40.991007      8            
    244000   154.5844       37.928748      10           
    245000   170.89987      41.59291       13           
    246000   249.22928      60.862102      16           
    247000   197.24419      47.330684      22           
    248000   175.18148      42.951945      18           
    249000   204.45681      49.984889      15           
    250000   137.72393      33.402279      18           
    251000   186.68368      45.648721      17           
    252000   176.42131      42.858849      11           
    253000   152.74577      37.40982       16           
    254000   199.93225      48.142151      17           
    255000   206.86255      50.141044      13           
    256000   329.70896      80.89188       13           
    257000   197.53955      47.171304      15           
    258000   258.31735      63.328571      10           
    259000   203.59933      48.947719      23           
    260000   180.38517      44.26161       15           
    261000   142.83976      34.6206        17           
    262000   169.44715      41.541462      15           
    263000   327.152        79.040163      18           
    264000   173.79897      41.211971      15           
    265000   174.60591      42.844074      11           
    266000   191.15207      46.148333      16           
    267000   160.96134      39.129895      15           
    268000   262.24091      64.302738      16           
    269000   225.01734      54.711914      14           
    270000   358.6629       87.475547      19           
    271000   99.955735      24.429136      9            
    272000   207.34189      50.841895      13           
    273000   170.41815      40.778063      15           
    274000   161.09986      39.461533      11           
    275000   259.59436      61.328271      25           
    276000   242.77897      59.539639      19           
    277000   186.14917      45.605476      15           
    278000   194.03345      47.506204      21           
    279000   180.87258      44.381191      10           
    280000   216.18792      52.572019      12           
    281000   185.31191      44.674831      15           
    282000   187.85716      45.820834      13           
    283000   272.8899       66.013192      15           
    284000   144.34398      35.697522      10           
    285000   202.26133      48.788265      12           
    286000   291.78622      71.290026      21           
    287000   234.0159       55.57178       17           
    288000   199.90813      47.472955      26           
    289000   141.20867      34.647198      11           
    290000   206.16679      48.979071      19           
    291000   296.25542      72.04139       21           
    292000   198.41713      48.669816      18           
    293000   219.34056      53.755705      17           
    294000   214.25521      50.624723      19           
    295000   231.37416      55.961384      16           
    296000   320.54629      78.553305      16           
    297000   230.09221      56.274003      15           
    298000   198.84695      48.756957      21           
    299000   189.38641      44.976362      13           
    300000   249.84787      60.222984      22           
    301000   222.75614      54.542849      21           
    302000   140.72328      34.485568      13           
    303000   224.52459      55.05656       16           
    304000   163.48463      39.865914      17           
    305000   312.31596      75.944564      15           
    306000   206.80461      50.468522      20           
    307000   163.72971      40.174897      11           
    308000   248.10632      60.546149      17           
    309000   175.11164      42.869127      10           
    310000   221.06601      54.247235      13           
    311000   184.06623      44.582164      14           
    312000   73.446501      18.02202       5            
    313000   174.62356      42.843017      14           
    314000   172.27164      42.166939      17           
    315000   176.81123      43.372081      15           
    316000   146.77914      34.428306      14           
    317000   195.9274       47.527268      21           
    318000   192.38643      46.243033      15           
    319000   280.24982      68.364838      20           
    320000   184.88265      45.386755      22           
    321000   124.4911       30.51587       11           
    322000   220.51651      54.092559      15           
    323000   335.84258      81.329453      9            
    324000   280.40127      68.626275      20           
    325000   145.29464      35.646726      10           
    326000   222.90587      54.540855      21           
    327000   191.49048      46.579058      12           
    328000   255.4623       61.170072      15           
    329000   199.55864      48.746214      19           
    330000   306.51144      75.169766      18           
    331000   199.77422      49.010386      9            
    332000   218.16296      53.249244      20           
    333000   169.51446      41.435559      19           
    334000   258.62633      63.085425      13           
    335000   147.98564      36.261689      10           
    336000   264.20191      64.347901      12           
    337000   218.90533      52.293648      19           
    338000   272.06628      65.809811      15           
    339000   180.74513      44.177889      16           
    340000   226.36459      55.51946       11           
    341000   40.503389      9.9058697      7            
    342000   199.69436      48.612994      15           
    343000   184.85143      44.455849      18           
    344000   124.84889      30.291111      11           
    345000   115.25224      28.273155      10           
    346000   193.56285      47.386879      17           
    347000   218.22253      52.286274      22           
    348000   173.17865      42.340596      17           
    349000   184.12408      45.115015      16           
    350000   232.59216      56.142184      16           
    351000   171.71952      42.947279      17           
    352000   192.04916      46.928265      14           
    353000   188.28165      46.111823      16           
    354000   237.81507      58.324751      22           
    355000   183.80637      45.03888       20           
    356000   158.85214      38.857123      16           
    357000   175.68468      43.052871      16           
    358000   162.33214      39.694897      11           
    359000   166.95304      40.899455      13           
    360000   215.67897      52.022647      21           
    361000   258.64603      63.348334      15           
    362000   193.51904      47.219888      17           
    363000   201.46823      49.225185      23           
    364000   213.30926      52.3083        20           
    365000   244.48421      58.782338      22           
    366000   246.76991      60.526915      17           
    367000   214.07627      52.104083      15           
    368000   171.93593      41.299678      12           
    369000   190.70521      46.642514      15           
    370000   153.74942      37.714287      13           
    371000   128.77597      31.215424      19           
    372000   96.19911       22.660342      8            
    373000   210.43797      51.60878       14           
    374000   200.41891      48.863774      12           
    375000   167.95861      41.21947       10           
    376000   187.00054      45.852365      9            
    377000   256.22465      61.94158       17           
    378000   186.93266      45.676911      12           
    379000   121.14434      29.728659      11           
    380000   229.83024      55.705069      16           
    381000   193.11413      46.690778      12           
    382000   199.67956      47.570202      20           
    383000   202.63595      48.693505      14           
    384000   200.33184      49.12518       13           
    385000   218.26884      53.263332      14           
    386000   176.05216      43.201559      10           
    387000   193.39271      47.446262      13           
    388000   200.1917       49.070351      17           
    389000   270.05629      66.248537      13           
    390000   310.63395      75.826457      20           
    391000   285.95391      69.74048       17           
    392000   227.81737      55.130955      14           
    393000   273.92963      66.857796      22           
    394000   222.06042      54.466587      15           
    395000   184.74767      45.177419      19           
    396000   238.06666      57.529423      20           
    397000   304.31247      74.027153      18           
    398000   154.80928      37.695738      12           
    399000   194.31448      47.636958      15           
    400000   202.7005       49.364758      16           
    401000   186.89991      45.028581      17           
    402000   268.96409      65.987741      18           
    403000   220.65576      53.992825      11           
    404000   270.66076      65.362359      15           
    405000   189.95439      44.886717      22           
    406000   189.65774      45.900756      17           
    407000   162.22949      38.510546      18           
    408000   279.38204      68.52807       14           
    409000   215.15365      52.024104      19           
    410000   106.08439      25.981696      9            
    411000   329.03378      80.714467      17           
    412000   153.98888      37.389783      12           
    413000   155.60442      36.363817      22           
    414000   152.19684      37.243509      11           
    415000   181.33932      44.481648      11           
    416000   173.35953      41.653268      17           
    417000   215.16041      52.767236      14           
    418000   135.78597      33.273538      12           
    419000   181.70486      44.079944      16           
    420000   268.99646      65.579842      21           
    421000   235.46846      57.693258      16           
    422000   129.17344      31.911139      12           
    423000   198.20519      47.758773      17           
    424000   185.97299      45.387444      21           
    425000   171.69108      41.718113      15           
    426000   190.47786      45.583454      19           
    427000   320.11212      78.085107      21           
    428000   283.0523       69.415017      18           
    429000   189.13745      46.019258      15           
    430000   188.65065      46.221029      11           
    431000   128.73399      31.589554      7            
    432000   341.76504      83.728038      21           
    433000   178.85349      43.44794       15           
    434000   208.88239      50.804656      16           
    435000   242.27378      58.910865      25           
    436000   330.87203      80.694271      20           
    437000   243.90886      58.99067       23           
    438000   161.29999      39.123543      18           
    439000   230.10066      55.505502      24           
    440000   263.83938      64.694527      15           
    441000   273.15847      66.939807      19           
    442000   272.88505      65.809109      22           
    443000   151.66867      37.159649      17           
    444000   188.16458      46.099056      11           
    445000   151.03476      37.081431      12           
    446000   208.43455      49.599345      24           
    447000   247.88499      59.587112      22           
    448000   233.0424       56.163321      17           
    449000   170.88914      41.801624      13           
    450000   206.65239      49.793657      19           
    451000   169.17199      41.498666      14           
    452000   120.18136      29.009446      13           
    453000   214.93184      51.797202      20           
    454000   251.40521      61.680984      12           
    455000   210.23154      50.651494      25           
    456000   288.44344      70.766185      16           
    457000   199.12096      48.308194      18           
    458000   178.99991      43.439257      17           
    459000   190.84424      45.958965      10           
    460000   167.51317      40.529152      13           
    461000   248.38464      60.630867      14           
    462000   164.50275      40.151818      14           
    463000   272.73384      66.372951      15           
    464000   164.56123      40.319123      19           
    465000   166.34361      39.83896       22           
    466000   328.66261      80.487487      17           
    467000   169.86049      41.678727      10           
    468000   204.2307       47.986261      21           
    469000   217.65474      52.537211      17           
    470000   99.793648      24.475677      10           
    471000   198.2596       48.600435      15           
    472000   246.13456      60.218925      16           
    473000   278.84708      68.120409      15           
    474000   222.69452      52.880404      16           
    475000   177.65884      42.756243      12           
    476000   126.5482       31.050377      11           
    477000   100.15675      24.569377      9            
    478000   173.68824      41.953968      21           
    479000   220.10487      53.703233      19           
    480000   164.54316      40.370446      14           
    481000   331.37497      81.191266      14           
    482000   260.63772      63.949095      12           
    483000   202.92425      49.092938      14           
    484000   243.40293      56.925674      26           
    485000   204.61174      50.136149      14           
    486000   170.16905      41.724681      12           
    487000   193.52944      47.24353       16           
    488000   135.78321      33.290081      13           
    489000   109.99432      26.979614      10           
    490000   165.73167      40.647155      14           
    491000   182.76748      44.385027      19           
    492000   206.34558      50.591554      15           
    493000   212.50171      51.891339      14           
    494000   309.58382      73.707813      16           
    495000   305.79357      73.485531      25           
    496000   233.44595      57.008205      12           
    497000   193.66652      47.405677      16           
    498000   147.34147      35.778404      15           
    499000   198.63542      48.604389      24           
    500000   156.514        38.315759      14           
    501000   197.8969       48.546964      17           
    502000   149.1535       36.517236      11           
    503000   197.65613      48.263055      20           
    504000   207.23485      49.710459      19           
    505000   300.85455      73.784977      15           
    506000   235.43919      57.054797      25           
    507000   209.24974      50.523822      17           
    508000   193.83972      47.004705      15           
    509000   177.35168      43.061113      23           
    510000   156.09781      38.292948      13           
    511000   109.70556      26.896263      12           
    512000   139.78375      34.18794       15           
    513000   248.55182      59.582394      17           
    514000   155.38247      37.920703      16           
    515000   199.97135      48.963424      15           
    516000   154.13368      37.831124      11           
    517000   186.14653      44.6424        16           
    518000   197.20956      48.352706      16           
    519000   209.14251      50.73078       14           
    520000   171.04534      41.776205      12           
    521000   188.76356      45.840655      19           
    522000   169.14813      40.77143       12           
    523000   199.6658       48.495115      19           
    524000   316.13623      77.037066      20           
    525000   308.31057      75.242617      21           
    526000   252.02437      60.780569      9            
    527000   275.30221      67.54309       18           
    528000   222.69677      53.119129      20           
    529000   243.76851      59.694445      12           
    530000   152.07607      36.837382      18           
    531000   201.49424      48.736333      15           
    532000   180.58542      43.534628      21           
    533000   142.3318       34.914331      12           
    534000   258.20206      61.883867      16           
    535000   180.62458      43.982917      18           
    536000   195.76184      47.708344      12           
    537000   189.06998      46.319839      15           
    538000   195.5403       47.941349      19           
    539000   134.31164      32.923578      11           
    540000   122.85134      30.136237      7            
    541000   235.17149      56.882737      16           
    542000   98.903483      24.208386      8            
    543000   136.18685      33.414849      11           
    544000   184.80105      44.548495      15           
    545000   179.64501      44.075037      14           
    546000   242.13448      58.787246      21           
    547000   118.26969      29.016618      9            
    548000   135.87867      32.704529      9            
    549000   87.034653      21.342011      6            
    550000   214.63581      52.264715      23           
    551000   227.85712      54.312882      22           
    552000   201.77877      49.463605      16           
    553000   213.0432       52.147318      15           
    554000   194.71593      46.831677      15           
    555000   138.45396      33.776926      17           
    556000   322.93754      77.630639      17           
    557000   154.86297      37.974971      12           
    558000   175.85063      42.031801      20           
    559000   266.10368      64.601907      15           
    560000   182.45347      44.768525      11           
    561000   244.4111       59.892106      15           
    562000   174.88492      42.502243      14           
    563000   208.93241      49.981885      15           
    564000   171.03508      41.277027      13           
    565000   206.4038       50.234863      14           
    566000   198.7189       48.726165      17           
    567000   102.30446      25.100227      10           
    568000   185.82557      45.404888      15           
    569000   211.70918      51.929483      16           
    570000   178.63807      43.666662      17           
    571000   153.17646      37.572747      14           
    572000   191.44052      46.510321      14           
    573000   299.94015      73.458319      16           
    574000   319.52975      78.142698      16           
    575000   170.26354      41.444422      16           
    576000   177.84271      42.820182      19           
    577000   308.95531      75.759453      18           
    578000   190.78318      46.811391      10           
    579000   194.67271      46.812481      17           
    580000   293.93445      72.120566      13           
    581000   188.06974      46.137659      15           
    582000   202.11391      49.186527      21           
    583000   191.51919      46.58034       10           
    584000   173.01274      42.047772      14           
    585000   206.81054      50.669532      12           
    586000   181.62754      43.75202       12           
    587000   187.23336      45.93737       10           
    588000   152.61921      37.35463       19           
    589000   173.791        42.621612      11           
    590000   247.03608      59.317193      23           
    591000   289.04651      70.488485      23           
    592000   207.33092      50.003009      19           
    593000   278.16242      67.857674      19           
    594000   123.45176      30.199329      11           
    595000   153.08806      37.249679      20           
    596000   200.19842      47.954773      22           
    597000   170.34184      41.684059      17           
    598000   121.18599      29.705696      13           
    599000   179.14107      44.988186      13           
    600000   260.88402      63.910765      20           
    601000   195.593        47.92705       14           
    602000   182.75634      44.816659      14           
    603000   196.97206      48.315498      16           
    604000   198.30797      48.661897      15           
    605000   167.6266       41.104279      13           
    606000   196.00501      46.781198      12           
    607000   166.92755      40.710742      11           
    608000   169.92222      41.68614       16           
    609000   174.35415      42.353071      19           
    610000   169.8826       41.47587       22           
    611000   195.528        46.644544      15           
    612000   164.27291      40.299196      13           
    613000   214.38325      51.838189      20           
    614000   155.86336      38.121208      19           
    615000   197.23396      47.697865      19           
    616000   220.73834      53.353402      23           
    617000   173.38005      42.546287      15           
    618000   205.62798      49.957418      17           
    619000   207.93231      50.369086      18           
    620000   168.38226      41.2854        12           
    621000   174.61501      42.81854       12           
    622000   115.57395      27.740382      11           
    623000   167.57003      40.66867       12           
    624000   265.44631      64.551682      20           
    625000   173.18749      42.306445      13           
    626000   186.18705      45.564551      18           
    627000   275.43246      66.554326      14           
    628000   190.42357      46.638071      11           
    629000   201.49141      49.332372      13           
    630000   138.2863       33.671011      11           
    631000   258.09446      63.170807      15           
    632000   198.68713      48.08677       19           
    633000   161.3935       39.589152      8            
    634000   233.60395      57.101301      19           
    635000   170.10186      41.667659      17           
    636000   139.79995      33.871646      13           
    637000   296.51965      72.193985      19           
    638000   133.91036      32.828445      11           
    639000   202.44359      49.266498      21           
    640000   151.0887       36.950558      21           
    641000   173.85364      42.101758      15           
    642000   174.49561      42.803329      13           
    643000   150.93749      37.043788      12           
    644000   177.30189      43.468616      18           
    645000   202.96162      49.243058      20           
    646000   63.329051      15.494686      11           
    647000   212.9039       51.167668      23           
    648000   255.19543      62.577641      10           
    649000   261.32876      64.127918      13           
    650000   210.35829      51.597027      15           
    651000   137.2936       33.642431      13           
    652000   307.48917      75.324489      13           
    653000   72.117862      17.695041      7            
    654000   166.89128      40.413516      17           
    655000   203.71122      48.979528      12           
    656000   195.77119      47.785789      17           
    657000   146.05961      35.777542      15           
    658000   186.2462       44.204469      25           
    659000   313.44227      75.14932       21           
    660000   276.11336      66.950286      19           
    661000   208.70937      50.134099      16           
    662000   182.21629      44.600678      21           
    663000   199.96718      51.352678      13           
    664000   179.43816      43.921895      17           
    665000   111.12101      27.261544      11           
    666000   186.61852      45.709264      11           
    667000   188.17636      46.07632       17           
    668000   222.66559      54.464333      9            
    669000   228.9033       55.271379      14           
    670000   251.77846      61.766639      16           
    671000   313.66796      76.952642      11           
    672000   142.78441      35.026641      9            
    673000   211.23739      51.246184      22           
    674000   304.4648       74.148999      22           
    675000   253.00062      61.573251      19           
    676000   148.69549      36.473546      13           
    677000   219.21346      52.721302      19           
    678000   197.61243      47.501064      16           
    679000   141.1846       33.687531      15           
    680000   139.54435      34.101959      17           
    681000   213.70023      52.063286      17           
    682000   177.4658       41.896677      20           
    683000   292.56541      71.151136      16           
    684000   211.37236      51.810532      16           
    685000   228.84427      55.176155      18           
    686000   158.17218      39.238759      17           
    687000   200.93395      48.06868       15           
    688000   276.38832      67.147289      12           
    689000   131.94248      32.389895      10           
    690000   256.90555      63.002033      17           
    691000   203.39231      49.893736      17           
    692000   83.789302      19.151275      10           
    693000   186.18653      45.662485      13           
    694000   188.8345       45.510349      21           
    695000   279.72747      67.499448      21           
    696000   288.11542      70.324941      17           
    697000   173.68384      42.5718        19           
    698000   108.49196      26.565507      11           
    699000   178.18784      43.435357      16           
    700000   185.59923      45.507143      14           
    701000   272.48479      66.434423      11           
    702000   140.21367      34.320888      14           
    703000   151.02043      36.926214      16           
    704000   167.34778      41.05358       13           
    705000   212.90631      51.665222      19           
    706000   203.89585      49.96321       20           
    707000   143.72855      35.269489      9            
    708000   121.17534      29.718616      11           
    709000   198.59005      46.755244      20           
    710000   181.69555      44.392431      14           
    711000   150.07212      36.82205       9            
    712000   116.02117      28.021886      8            
    713000   197.33458      48.338664      18           
    714000   228.17876      55.882673      18           
    715000   179.74493      44.037779      16           
    716000   95.00284       22.623671      9            
    717000   192.32016      45.918484      20           
    718000   188.41226      45.712621      24           
    719000   170.81155      41.333186      17           
    720000   217.32068      52.545056      14           
    721000   186.70352      45.69628       17           
    722000   182.21102      43.935383      13           
    723000   180.24445      43.061255      19           
    724000   166.20941      40.7827        21           
    725000   156.80651      36.029879      19           
    726000   270.83865      66.013067      21           
    727000   232.38206      56.076923      20           
    728000   164.46188      39.524847      12           
    729000   203.84724      50.01107       10           
    730000   198.72523      47.994906      15           
    731000   150.93117      36.291577      19           
    732000   174.1448       41.985278      17           
    733000   157.68099      37.637192      18           
    734000   335.00611      82.1686        13           
    735000   194.46439      47.643413      15           
    736000   170.47663      41.825253      10           
    737000   159.05793      39.026376      11           
    738000   191.89848      46.975862      19           
    739000   307.97027      75.290383      18           
    740000   340.79221      83.533517      17           
    741000   176.85845      43.368216      16           
    742000   311.24453      76.342627      15           
    743000   145.05124      35.528999      13           
    744000   150.70928      36.444029      14           
    745000   276.92506      66.993952      17           
    746000   225.7231       55.287424      20           
    747000   171.63318      41.145267      26           
    748000   256.45454      61.497499      25           
    749000   203.968        50.047078      16           
    750000   205.7731       50.315357      10           
    751000   210.99217      51.343217      18           
    752000   190.06214      45.901772      13           
    753000   184.85061      45.041382      20           
    754000   153.57409      37.097882      23           
    755000   179.82968      44.071304      12           
    756000   188.77138      46.280374      17           
    757000   166.41396      40.278368      14           
    758000   305.37166      74.687694      19           
    759000   230.58138      56.391202      18           
    760000   164.99297      40.475486      10           
    761000   155.66527      38.171181      16           
    762000   167.8676       40.641254      13           
    763000   199.98348      48.956684      19           
    764000   202.42888      49.652556      14           
    765000   170.79359      40.118434      25           
    766000   264.56421      64.895631      16           
    767000   194.48294      47.434179      19           
    768000   293.65034      71.740211      13           
    769000   178.75892      43.848717      16           
    770000   125.35714      30.69983       9            
    771000   181.86009      44.597389      14           
    772000   180.72444      44.301936      14           
    773000   133.95315      32.869279      10           
    774000   215.79998      51.646026      15           
    775000   150.40987      36.610036      13           
    776000   161.1985       38.398997      15           
    777000   223.14056      54.71092       17           
    778000   173.74917      42.299344      17           
    779000   197.08731      47.558613      18           
    780000   196.56108      48.226052      19           
    781000   197.51569      47.764939      17           
    782000   240.39506      58.44456       11           
    783000   119.94866      29.052699      13           
    784000   161.25506      39.469712      12           
    785000   200.26902      48.27318       18           
    786000   200.01608      48.933415      17           
    787000   322.14178      78.418012      15           
    788000   187.66221      44.761094      18           
    789000   276.25849      67.690555      23           
    790000   211.60158      50.78794       27           
    791000   193.3589       46.498263      12           
    792000   206.5978       50.023103      17           
    793000   160.49881      39.29568       14           
    794000   199.705        48.9449        11           
    795000   197.15053      47.529126      21           
    796000   166.22173      39.48511       21           
    797000   168.48135      41.192512      13           
    798000   136.55899      32.967988      12           
    799000   178.20994      42.892334      21           
    800000   299.20021      72.669496      18           
    801000   180.9944       43.79999       17           
    802000   175.49019      41.596754      19           
    803000   269.60286      65.338902      16           
    804000   250.95204      60.239809      19           
    805000   193.16202      46.811319      16           
    806000   206.80629      50.286178      16           
    807000   166.25928      40.691525      13           
    808000   304.3879       73.267914      19           
    809000   186.06915      45.305383      19           
    810000   202.00438      49.557143      15           
    811000   157.72562      37.959399      21           
    812000   253.90491      60.238873      26           
    813000   273.60604      66.986221      22           
    814000   160.84203      39.392515      15           
    815000   236.90993      57.234294      24           
    816000   160.74527      39.451567      8            
    817000   146.8896       35.649149      12           
    818000   198.92047      48.259131      19           
    819000   166.89807      40.056091      15           
    820000   155.49062      38.077515      13           
    821000   167.96447      40.393685      14           
    822000   179.20147      43.527888      18           
    823000   150.46638      34.534149      21           
    824000   180.28479      44.237726      12           
    825000   191.35343      46.939099      16           
    826000   198.7233       47.828488      19           
    827000   268.65531      65.208         13           
    828000   186.72559      45.673198      14           
    829000   191.29189      46.785153      19           
    830000   120.75599      29.478825      16           
    831000   293.67641      71.776488      15           
    832000   197.61264      48.439899      18           
    833000   151.73312      37.146174      12           
    834000   141.11816      34.1347        10           
    835000   187.25914      45.796805      13           
    836000   181.85886      42.960929      16           
    837000   342.35787      83.236773      16           
    838000   184.33024      44.946712      16           
    839000   147.18784      36.114323      9            
    840000   189.14132      46.296982      14           
    841000   212.22817      51.345996      18           
    842000   325.92578      79.428134      12           
    843000   213.64034      52.405627      15           
    844000   219.27727      53.073337      17           
    845000   175.37913      42.805556      12           
    846000   301.90384      74.07537       18           
    847000   190.94363      45.464129      19           
    848000   129.23153      30.265099      8            
    849000   159.93666      39.139129      13           
    850000   215.48708      52.777007      14           
    851000   224.94023      55.130371      16           
    852000   152.71412      36.295061      13           
    853000   110.65405      27.156097      7            
    854000   325.14802      79.415886      11           
    855000   264.65019      64.257239      22           
    856000   169.76023      41.648991      11           
    857000   192.46267      46.488455      22           
    858000   314.14176      76.581293      18           
    859000   152.62783      37.158219      17           
    860000   188.46837      46.181878      17           
    861000   194.52754      46.929995      22           
    862000   323.06121      78.760681      21           
    863000   174.72545      42.826727      16           
    864000   177.42849      43.528351      11           
    865000   192.49043      47.150276      24           
    866000   158.68609      38.733844      15           
    867000   153.40672      37.594946      12           
    868000   178.80359      43.538482      14           
    869000   251.74167      61.6692        20           
    870000   218.04393      52.994841      20           
    871000   190.53448      46.418654      16           
    872000   198.16483      48.162762      20           
    873000   283.39238      69.485977      13           
    874000   162.13415      39.546086      14           
    875000   199.97252      47.66615       21           
    876000   261.54285      64.175915      12           
    877000   126.16727      30.622894      12           
    878000   209.97473      50.388429      23           
    879000   182.50621      45.162346      19           
    880000   181.61015      44.409366      15           
    881000   203.12792      49.766542      16           
    882000   184.45103      45.163774      14           
    883000   195.3376       47.762857      18           
    884000   271.44947      65.645416      20           
    885000   173.91366      42.524057      11           
    886000   211.63783      51.529068      15           
    887000   288.35252      70.180347      21           
    888000   196.0234       47.551273      17           
    889000   177.15646      43.45133       11           
    890000   174.89116      41.739848      23           
    891000   265.179        62.689266      24           
    892000   331.62653      79.846904      19           
    893000   162.25325      39.04121       10           
    894000   131.93507      32.228905      12           
    895000   125.52711      30.734411      13           
    896000   231.36965      55.784745      24           
    897000   158.90027      38.843471      12           
    898000   235.37941      56.130766      17           
    899000   198.50343      48.601417      15           
    900000   135.22842      33.145272      14           
    901000   191.01012      46.767336      19           
    902000   125.42956      30.742913      14           
    903000   160.91235      39.422946      14           
    904000   276.56563      67.794605      17           
    905000   194.21206      46.94237       17           
    906000   194.71996      47.508123      14           
    907000   187.41275      45.161641      15           
    908000   290.21314      71.209451      12           
    909000   218.66675      53.568707      18           
    910000   173.88649      42.595687      13           
    911000   185.87221      45.544169      11           
    912000   170.55069      41.722353      22           
    913000   181.33352      43.553321      21           
    914000   203.58245      49.843328      17           
    915000   160.06542      38.430632      23           
    916000   198.42667      48.548259      18           
    917000   188.81263      46.275564      16           
    918000   147.86906      36.184054      14           
    919000   178.89523      43.531692      17           
    920000   195.87916      47.813524      16           
    921000   190.88532      45.902805      20           
    922000   159.6528       38.635307      22           
    923000   293.61134      71.375434      18           
    924000   166.81447      39.710211      19           
    925000   159.69501      39.159195      13           
    926000   117.39313      28.805956      7            
    927000   187.9645       45.013302      14           
    928000   202.43738      48.555516      20           
    929000   147.83635      36.244643      7            
    930000   193.9121       47.180863      16           
    931000   206.1188       49.346117      18           
    932000   190.90806      46.847317      10           
    933000   178.08638      42.588713      21           
    934000   300.15025      72.634333      17           
    935000   177.21909      43.478002      15           
    936000   155.08541      37.000157      20           
    937000   279.47882      67.584741      18           
    938000   233.3619       56.366354      19           
    939000   165.44171      40.159753      11           
    940000   193.00559      47.251477      11           
    941000   138.45401      33.792187      16           
    942000   150.62241      35.09349       15           
    943000   184.04481      44.83411       11           
    944000   121.76053      29.532425      15           
    945000   172.09142      41.769885      10           
    946000   161.09744      39.247641      12           
    947000   132.83444      32.562509      14           
    948000   303.95558      73.241494      24           
    949000   229.6168       56.29096       15           
    950000   127.81827      31.364207      9            
    951000   165.86283      40.698501      13           
    952000   200.65548      48.88481       14           
    953000   112.28165      27.550584      12           
    954000   123.93777      30.170842      23           
    955000   233.14026      56.184258      21           
    956000   230.96106      56.072098      18           
    957000   190.41196      46.527873      16           
    958000   156.73372      37.308331      25           
    959000   282.07342      69.206403      16           
    960000   106.69812      25.64009       10           
    961000   216.50546      53.061056      20           
    962000   137.33401      33.6989        10           
    963000   167.33808      41.047563      12           
    964000   179.70001      43.700686      19           
    965000   186.66183      44.233792      17           
    966000   133.00604      32.524447      10           
    967000   117.60013      28.691332      11           
    968000   174.91953      42.767227      12           
    969000   183.75908      44.929392      12           
    970000   188.3605       46.052723      18           
    971000   157.27004      37.667589      18           
    972000   161.92623      39.137994      16           
    973000   318.18101      77.159405      19           
    974000   299.6829       73.328528      21           
    975000   177.08879      43.352491      16           
    976000   144.37762      35.411641      13           
    977000   167.5603       40.822533      13           
    978000   182.91395      44.750029      16           
    979000   290.96741      70.053764      20           
    980000   171.12801      41.544574      12           
    981000   131.8689       32.342038      11           
    982000   175.51788      42.986986      18           
    983000   162.9933       39.601242      15           
    984000   306.22536      75.111905      16           
    985000   305.044        74.683036      16           
    986000   317.76164      77.95312       17           
    987000   193.59023      46.932013      12           
    988000   192.34956      46.525794      19           
    989000   298.56691      72.921839      19           
    990000   123.15865      30.195072      7            
    991000   243.75278      59.343941      17           
    992000   230.37641      55.453451      18           
    993000   244.8282       59.428692      14           
    994000   198.86237      48.507956      19           
    995000   172.73089      42.376317      13           
    996000   175.78969      42.95295       20           
    997000   214.26455      52.524868      15           
    998000   169.83713      41.626524      12           
    999000   206.10677      50.13108       17           
   1000000   136.31045      32.523697      20           
   1001000   194.63281      46.80458       18           
   1002000   190.80071      46.048114      15           
   1003000   150.94662      36.626674      13           
   1004000   210.60595      51.042692      16           
   1005000   310.92488      76.246265      18           
   1006000   166.59057      39.848827      15           
   1007000   278.80968      67.539509      24           
   1008000   170.61375      41.341183      18           
   1009000   144.05248      35.294729      13           
   1010000   196.24899      48.012458      18           
   1011000   195.75744      47.955339      18           
   1012000   250.21294      61.182133      17           
   1013000   162.35138      39.816663      13           
   1014000   173.69264      42.553028      17           
   1015000   173.26128      42.138376      17           
   1016000   293.02657      70.759512      22           
   1017000   153.80491      37.725486      17           
   1018000   166.40271      40.316528      26           
   1019000   209.15807      51.219302      16           
   1020000   183.03204      44.163642      15           
   1021000   213.59371      52.383574      18           
   1022000   322.66286      78.413935      23           
   1023000   204.0109       49.563544      18           
   1024000   217.93547      54.671673      17           
   1025000   310.48668      76.172986      19           
   1026000   194.38711      50.311149      22           
   1027000   262.32266      63.508821      17           
   1028000   254.38376      61.952468      12           
   1029000   208.05289      50.938908      19           
   1030000   304.46274      74.23383       17           
   1031000   209.02686      50.343107      17           
   1032000   144.99224      35.567096      11           
   1033000   190.36467      46.346134      14           
   1034000   192.21416      46.942579      16           
   1035000   207.23557      50.426239      27           
   1036000   141.25885      34.298991      16           
   1037000   192.9564       46.369238      11           
   1038000   172.36545      42.190841      13           
   1039000   171.95121      42.144301      12           
   1040000   226.09813      55.139305      16           
   1041000   190.98141      46.803023      15           
   1042000   304.04897      73.257661      23           
   1043000   209.94665      50.695267      19           
   1044000   182.26707      43.692512      18           
   1045000   222.8206       54.570912      10           
   1046000   155.60004      37.976636      17           
   1047000   146.29704      35.815716      8            
   1048000   199.58424      48.965187      15           
   1049000   205.4861       50.266038      18           
   1050000   162.94658      39.950115      20           
   1051000   174.4148       41.799268      14           
   1052000   199.82766      48.887709      14           
   1053000   177.95711      43.259158      18           
   1054000   172.18534      42.219842      16           
   1055000   170.89635      41.538635      13           
   1056000   149.24189      36.586771      6            
   1057000   195.15148      47.205816      23           
   1058000   177.72058      42.566922      17           
   1059000   154.90789      37.195191      12           
   1060000   154.14089      37.817019      14           
   1061000   203.39157      47.879782      23           
   1062000   186.15337      45.605744      15           
   1063000   217.02624      53.216866      12           
   1064000   243.49599      59.118876      16           
   1065000   165.82661      40.667876      17           
   1066000   180.82311      44.078521      15           
   1067000   142.75365      35.009306      9            
   1068000   139.16784      33.454384      22           
   1069000   207.92205      50.403494      18           
   1070000   255.37534      60.605563      19           
   1071000   302.76188      74.167263      15           
   1072000   141.93671      34.226147      21           
   1073000   149.28229      36.446752      19           
   1074000   292.92166      71.730324      18           
   1075000   170.78306      41.890227      12           
   1076000   219.52169      53.906536      12           
   1077000   167.08373      40.520444      14           
   1078000   205.11302      50.246247      15           
   1079000   218.64696      53.648544      12           
   1080000   195.69565      47.770239      20           
   1081000   245.80137      60.164377      20           
   1082000   150.45237      36.720597      8            
   1083000   214.25267      51.613687      26           
   1084000   289.12567      70.940306      13           
   1085000   193.67047      46.570615      23           
   1086000   264.02743      64.39836       16           
   1087000   311.4623       75.784435      25           
   1088000   196.29519      48.112445      17           
   1089000   153.38256      37.624025      14           
   1090000   133.78258      32.70042       14           
   1091000   199.77899      48.886187      19           
   1092000   216.4067       52.826119      23           
   1093000   185.38196      44.932866      10           
   1094000   102.4434       25.119198      13           
   1095000   180.85378      44.251389      14           
   1096000   199.71176      48.170921      24           
   1097000   177.45797      43.49984       17           
   1098000   197.12124      47.449677      19           
   1099000   184.32008      45.229706      8            
   1100000   281.1353       67.987999      21           
   1101000   230.15854      56.049601      22           
   1102000   95.074945      23.331417      8            
   1103000   192.09082      47.101706      14           
   1104000   200.93581      48.323844      18           
   1105000   196.57884      47.956509      17           
   1106000   136.3876       33.321306      13           
   1107000   206.8023       50.499008      21           
   1108000   305.03338      74.800891      15           
   1109000   266.43473      64.975276      15           
   1110000   188.84896      44.840297      20           
   1111000   199.61777      48.446378      21           
   1112000   165.91568      40.699921      13           
   1113000   290.76929      71.132018      15           
   1114000   178.66133      43.647243      25           
   1115000   193.56132      47.466897      16           
   1116000   151.23468      37.03182       15           
   1117000   237.54995      56.174426      17           
   1118000   142.81516      34.358002      23           
   1119000   211.50069      51.474206      20           
   1120000   192.73594      45.959505      15           
   1121000   153.8191       37.68325       12           
   1122000   131.77296      32.260654      19           
   1123000   217.01059      53.139665      11           
   1124000   189.37203      46.904213      18           
   1125000   196.88556      48.082138      16           
   1126000   117.69302      28.844363      10           
   1127000   308.84761      74.465399      24           
   1128000   177.03644      42.950622      13           
   1129000   165.0593       40.444519      15           
   1130000   192.97343      46.952565      13           
   1131000   208.04754      50.394287      18           
   1132000   169.1599       40.133567      15           
   1133000   266.40086      64.818831      19           
   1134000   240.14035      58.815574      15           
   1135000   249.84865      60.685256      20           
   1136000   162.5542       39.84689       12           
   1137000   244.74038      58.986557      22           
   1138000   166.07266      40.744481      12           
   1139000   216.04595      52.089139      22           
   1140000   189.13903      46.408617      13           
   1141000   127.79727      31.338534      16           
   1142000   190.29748      46.624829      13           
   1143000   139.99416      34.331001      10           
   1144000   171.67327      39.300488      21           
   1145000   337.26719      81.233931      14           
   1146000   304.68643      74.76314       10           
   1147000   99.617531      24.393201      11           
   1148000   268.30401      65.326183      17           
   1149000   183.6269       45.024528      16           
   1150000   159.46215      39.025769      15           
   1151000   238.63441      58.430546      15           
   1152000   162.83447      39.929843      13           
   1153000   204.52688      49.920495      15           
   1154000   177.267        42.379406      13           
   1155000   149.9674       36.620373      10           
   1156000   186.8092       45.662466      12           
   1157000   201.53403      49.448107      19           
   1158000   237.70895      57.466031      15           
   1159000   167.27661      41.017203      15           
   1160000   192.89827      46.60021       19           
   1161000   240.67293      58.404818      19           
   1162000   290.57263      71.089613      14           
   1163000   125.93301      30.8985        11           
   1164000   186.07063      45.641642      16           
   1165000   180.09371      44.173378      12           
   1166000   135.07477      33.138215      15           
   1167000   181.29669      44.441084      12           
   1168000   131.82104      32.340202      10           
   1169000   158.65489      38.714788      15           
   1170000   290.60288      71.13765       23           
   1171000   137.10285      33.170714      21           
   1172000   136.02338      33.336226      13           
   1173000   186.30056      42.652314      23           
   1174000   330.46018      81.033804      15           
   1175000   190.70079      46.745361      15           
   1176000   189.55838      46.226785      19           
   1177000   148.08251      36.335909      9            
   1178000   98.957177      24.282869      8            
   1179000   152.85916      37.408587      8            
   1180000   209.36163      50.603602      17           
   1181000   159.91178      39.211428      15           
   1182000   187.00934      43.769782      18           
   1183000   257.58317      63.191522      16           
   1184000   198.84413      48.76279       17           
   1185000   291.45833      71.401295      12           
   1186000   192.39362      47.128565      19           
   1187000   148.30419      35.876369      15           
   1188000   167.44676      40.965735      12           
   1189000   162.15654      39.774776      12           
   1190000   200.74747      48.805852      13           
   1191000   149.51608      36.657113      12           
   1192000   178.0611       43.28484       14           
   1193000   210.3083       51.306527      18           
   1194000   193.43274      47.41886       12           
   1195000   177.84757      43.614849      14           
   1196000   107.24604      26.719815      11           
   1197000   140.30924      34.371616      11           
   1198000   166.98038      40.899857      18           
   1199000   198.79438      46.593703      23           
   1200000   174.35762      42.508746      16           
   1201000   245.18048      59.662312      15           
   1202000   183.23124      43.57596       13           
   1203000   283.41317      67.817579      21           
   1204000   163.0574       39.774544      18           
   1205000   183.59659      44.774538      24           
   1206000   261.38826      63.010147      22           
   1207000   253.72254      62.135876      17           
   1208000   224.95124      54.5547        18           
   1209000   351.38852      86.213766      15           
   1210000   159.13601      38.89269       15           
   1211000   176.62751      43.007637      13           
   1212000   169.77298      41.593137      16           
   1213000   200.5457       47.747214      21           
   1214000   162.8999       39.966712      12           
   1215000   171.93607      40.737515      14           
   1216000   113.79342      27.250005      11           
   1217000   177.10196      43.350004      14           
   1218000   241.14507      58.470368      18           
   1219000   195.0583       47.678532      15           
   1220000   164.60891      39.98707       12           
   1221000   200.20175      48.55928       20           
   1222000   182.2109       44.650824      13           
   1223000   130.14038      31.917512      8            
   1224000   163.31562      40.084399      12           
   1225000   135.94046      33.201326      9            
   1226000   163.90774      40.216096      13           
   1227000   185.98848      44.459391      18           
   1228000   183.93828      44.554845      18           
   1229000   162.87464      39.877301      15           
   1230000   147.36721      35.903938      18           
   1231000   142.36419      34.933296      11           
   1232000   210.82735      51.666643      18           
   1233000   175.82852      42.433841      22           
   1234000   181.22756      44.07492       8            
   1235000   241.20152      59.07933       17           
   1236000   174.156        42.478453      20           
   1237000   169.8419       41.673254      13           
   1238000   194.05976      46.458424      19           
   1239000   294.47952      72.252024      13           
   1240000   193.66701      47.03875       18           
   1241000   198.99459      48.784477      9            
   1242000   193.65225      46.728353      18           
   1243000   180.9282       43.383184      19           
   1244000   244.20002      59.614073      17           
   1245000   179.20992      43.593157      19           
   1246000   190.25217      46.216524      15           
   1247000   221.43586      53.530676      16           
   1248000   118.90952      29.009178      10           
   1249000   287.07856      68.555046      25           
   1250000   163.33258      40.032849      14           
   1251000   132.02013      32.394595      9            
   1252000   177.78153      42.865741      21           
   1253000   201.83327      48.915328      14           
   1254000   186.765        45.540787      13           
   1255000   188.80871      46.244724      12           
   1256000   166.31911      40.299597      15           
   1257000   167.54047      40.300743      12           
   1258000   295.90397      71.745941      23           
   1259000   277.58035      67.713858      16           
   1260000   265.92914      64.216921      20           
   1261000   189.84392      46.52077       16           
   1262000   218.8452       51.620201      28           
   1263000   302.3578       73.746777      20           
   1264000   179.69326      43.466803      20           
   1265000   138.61442      33.922808      14           
   1266000   165.23839      39.531812      19           
   1267000   179.77412      43.115895      14           
   1268000   153.62763      36.954512      19           
   1269000   175.26587      42.699835      14           
   1270000   175.2601       42.754971      15           
   1271000   190.9849       46.515846      21           
   1272000   291.16119      71.360591      14           
   1273000   193.60264      47.403503      10           
   1274000   171.88974      42.169871      14           
   1275000   209.32055      51.341802      13           
   1276000   172.01685      40.580906      15           
   1277000   331.41418      80.111913      21           
   1278000   195.20974      47.736553      17           
   1279000   233.15461      56.344224      22           
   1280000   321.65663      78.827106      20           
   1281000   203.30741      49.724106      11           
   1282000   206.82254      49.703848      14           
   1283000   147.40529      36.131346      11           
   1284000   141.78096      34.710252      14           
   1285000   170.43028      41.78521       9            
   1286000   185.33129      44.385264      26           
   1287000   236.84136      57.869977      14           
   1288000   243.37013      59.262289      18           
   1289000   300.82789      73.823497      11           
   1290000   189.47921      45.910038      21           
   1291000   286.76747      68.718058      20           
   1292000   238.6866       58.436166      20           
   1293000   264.23486      63.837521      17           
   1294000   192.45797      45.987737      18           
   1295000   281.31971      68.98089       23           
   1296000   174.00331      42.307496      14           
   1297000   212.98997      52.234993      16           
   1298000   175.99516      42.872785      22           
   1299000   150.44273      36.804367      9            
   1300000   258.37765      62.903522      14           
   1301000   222.95188      53.455618      20           
   1302000   274.18597      67.258976      17           
   1303000   206.54728      49.54146       14           
   1304000   184.97277      44.560541      11           
   1305000   192.74635      46.520352      15           
   1306000   202.1988       48.513851      16           
   1307000   178.13549      43.547839      15           
   1308000   184.81781      45.338808      14           
   1309000   165.42113      39.971407      19           
   1310000   201.25895      49.153891      12           
   1311000   204.40272      49.967603      17           
   1312000   320.10916      78.340743      16           
   1313000   306.52304      74.809002      24           
   1314000   169.18608      41.48658       16           
   1315000   293.07739      71.895789      14           
   1316000   236.44417      57.184782      14           
   1317000   148.23874      35.692014      15           
   1318000   146.12007      35.77599       15           
   1319000   187.28229      45.926282      18           
   1320000   174.69211      43.226103      15           
   1321000   219.38613      53.665877      16           
   1322000   180.09987      44.143481      21           
   1323000   212.52625      51.739653      18           
   1324000   194.34744      47.557706      12           
   1325000   117.1597       28.741266      11           
   1326000   248.55795      60.946862      9            
   1327000   199.35774      48.791816      16           
   1328000   183.67611      45.053723      14           
   1329000   198.989        48.596282      11           
   1330000   171.46885      41.668804      14           
   1331000   155.89474      37.58747       13           
   1332000   178.27626      42.791734      27           
   1333000   203.08003      49.695387      21           
   1334000   230.71539      56.597157      16           
   1335000   224.12334      54.546499      18           
   1336000   174.73943      41.32433       20           
   1337000   288.69         70.478201      19           
   1338000   165.52287      40.270757      18           
   1339000   311.39791      74.598902      15           
   1340000   126.53199      31.045726      8            
   1341000   191.6196       47.015408      12           
   1342000   193.32574      47.384454      15           
   1343000   198.89247      48.654075      15           
   1344000   120.55688      29.558104      10           
   1345000   147.87813      35.922503      15           
   1346000   156.11907      38.304053      10           
   1347000   239.34561      57.962203      21           
   1348000   273.30771      66.593253      15           
   1349000   326.28097      80.028805      16           
   1350000   189.18181      46.33938       14           
   1351000   170.76429      41.901342      12           
   1352000   181.69076      42.48598       18           
   1353000   203.85528      49.571228      17           
   1354000   331.43975      81.044578      16           
   1355000   199.63353      48.973144      12           
   1356000   166.1464       40.530064      16           
   1357000   141.67494      34.297729      16           
   1358000   172.29602      42.042205      18           
   1359000   201.7277       48.209894      21           
   1360000   221.80778      53.993804      18           
   1361000   194.75925      47.590128      19           
   1362000   190.55614      46.488176      22           
   1363000   216.39822      51.993736      21           
   1364000   217.9237       53.237954      15           
   1365000   285.46789      69.697387      14           
   1366000   164.51008      40.372902      12           
   1367000   260.84633      63.692592      15           
   1368000   213.31918      51.960903      16           
   1369000   196.57777      48.222515      18           
   1370000   172.70385      42.840374      16           
   1371000   150.91216      36.752949      12           
   1372000   312.19454      76.492687      14           
   1373000   144.9533       35.613701      15           
   1374000   280.5003       68.77914       13           
   1375000   135.07712      32.986784      17           
   1376000   223.94974      54.937099      12           
   1377000   202.34265      49.520101      20           
   1378000   133.01402      32.633857      7            
   1379000   182.08893      43.186847      18           
   1380000   122.24504      29.979821      9            
   1381000   294.16636      69.664364      14           
   1382000   234.02315      56.858966      17           
   1383000   158.10858      38.682928      16           
   1384000   191.03786      45.618752      20           
   1385000   286.80023      69.463759      25           
   1386000   326.01821      79.975398      19           
   1387000   195.29734      46.425463      33           
   1388000   212.06635      51.833346      12           
   1389000   129.9906       31.897617      9            
   1390000   219.10232      52.774429      23           
   1391000   191.68056      46.306199      19           
   1392000   196.26078      48.060898      14           
   1393000   174.74968      42.4854        18           
   1394000   267.12334      65.502651      19           
   1395000   219.65831      53.838134      15           
   1396000   157.51907      38.630826      11           
   1397000   147.16823      36.105381      10           
   1398000   167.82473      40.626358      14           
   1399000   269.84972      64.913959      18           
   1400000   170.16354      41.614289      11           
   1401000   168.53533      41.034508      16           
   1402000   177.45395      42.787885      19           
   1403000   214.50612      52.181731      20           
   1404000   277.24457      66.070211      23           
   1405000   247.22653      60.19726       15           
   1406000   154.51804      37.851445      15           
   1407000   84.988368      20.14255       10           
   1408000   241.42481      58.951847      19           
   1409000   138.75247      33.978464      12           
   1410000   124.00991      30.344968      8            
   1411000   108.87225      26.706272      7            
   1412000   256.13769      62.830103      14           
   1413000   153.91092      37.662466      15           
   1414000   201.30506      49.212145      18           
   1415000   195.0833       47.236003      22           
   1416000   137.74045      33.776005      10           
   1417000   183.33869      44.980602      13           
   1418000   329.00149      80.016584      23           
   1419000   273.70143      66.839696      21           
   1420000   189.94669      46.318192      17           
   1421000   253.42469      61.693623      15           
   1422000   187.64187      45.827221      17           
   1423000   234.51808      56.920264      20           
   1424000   210.35233      50.506715      22           
   1425000   318.60712      77.580097      17           
   1426000   280.83358      68.501497      24           
   1427000   325.74383      79.060659      16           
   1428000   176.39678      43.273604      12           
   1429000   297.88492      72.707414      22           
   1430000   223.83145      53.546278      17           
   1431000   266.01318      64.176541      20           
   1432000   307.95714      74.852212      13           
   1433000   194.59093      47.663376      14           
   1434000   270.2765       65.907647      19           
   1435000   212.35135      51.97913       18           
   1436000   196.84527      48.032846      16           
   1437000   240.81218      57.54795       15           
   1438000   173.88779      42.564315      20           
   1439000   226.11467      54.016187      23           
   1440000   170.08172      40.723931      14           
   1441000   188.66894      46.138626      15           
   1442000   180.45211      43.734236      26           
   1443000   181.45559      44.433825      16           
   1444000   222.73366      53.913531      18           
   1445000   111.05738      27.17578       13           
   1446000   166.14815      40.755338      15           
   1447000   201.55552      49.394525      14           
   1448000   184.30633      44.97876       20           
   1449000   214.94034      51.877423      20           
   1450000   13.614021      3.3458163      4            
   1451000   177.77284      43.583846      11           
   1452000   181.4299       44.46815       15           
   1453000   166.43285      40.61347       12           
   1454000   240.97831      57.515969      14           
   1455000   144.68124      35.475652      12           
   1456000   138.21453      33.577891      20           
   1457000   326.72979      79.773334      13           
   1458000   303.96895      74.024326      18           
   1459000   182.42865      44.382628      18           
   1460000   237.29931      57.193044      23           
   1461000   233.08329      56.923505      17           
   1462000   161.08805      39.429371      18           
   1463000   177.46098      42.628724      9            
   1464000   256.54216      62.373765      17           
   1465000   212.55639      52.014619      15           
   1466000   133.84569      32.511327      11           
   1467000   317.31043      77.84288       10           
   1468000   324.47915      79.570153      15           
   1469000   140.87618      34.559242      12           
   1470000   93.097918      22.668367      15           
   1471000   169.57166      40.523761      19           
   1472000   180.90505      44.322335      13           
   1473000   193.99235      47.455486      18           
   1474000   169.40829      41.538627      9            
   1475000   137.50588      33.126514      22           
   1476000   187.01507      45.224948      23           
   1477000   203.07206      49.333472      12           
   1478000   159.81608      38.36059       23           
   1479000   283.52342      69.070053      19           
   1480000   118.66475      29.06115       15           
   1481000   307.10935      74.83757       30           
   1482000   183.16046      43.658858      24           
   1483000   197.84309      48.535946      15           
   1484000   159.1711       39.055214      12           
   1485000   116.15083      28.374324      12           
   1486000   178.55363      42.821045      14           
   1487000   218.33506      53.065534      14           
   1488000   190.33855      46.692466      12           
   1489000   148.27484      36.125385      13           
   1490000   164.74639      40.175228      19           
   1491000   198.04834      48.460078      13           
   1492000   175.4702       43.050487      13           
   1493000   120.61541      29.477977      13           
   1494000   166.78999      40.9246        10           
   1495000   179.75814      43.472434      18           
   1496000   140.69319      34.514599      11           
   1497000   121.16443      29.732759      5            
   1498000   177.77614      43.600049      13           
   1499000   174.59385      42.398084      11           
   1500000   217.06245      53.133528      20           
   1501000   290.52519      71.198151      15           
   1502000   217.21386      52.824916      18           
   1503000   189.6695       46.147745      16           
   1504000   192.95141      46.744476      16           
   1505000   185.00471      45.120595      21           
   1506000   332.90911      81.029524      20           
   1507000   176.51888      42.733679      24           
   1508000   334.91272      80.828151      26           
   1509000   262.26233      64.101578      19           
   1510000   191.76892      46.639872      15           
   1511000   203.4594       49.271889      14           
   1512000   192.63017      47.19563       11           
   1513000   120.40637      28.975906      11           
   1514000   131.52168      32.090218      10           
   1515000   228.49691      55.880539      17           
   1516000   253.64694      61.108184      27           
   1517000   287.38297      67.981161      30           
   1518000   220.88137      53.597158      17           
   1519000   206.84188      49.836066      22           
   1520000   188.04553      45.975489      14           
   1521000   272.06954      66.679774      11           
   1522000   175.14987      42.939929      12           
   1523000   209.70025      50.846445      18           
   1524000   223.14727      54.360136      17           
   1525000   193.47969      46.712176      18           
   1526000   259.51274      63.53711       18           
   1527000   170.07686      41.733682      11           
   1528000   132.39613      31.184191      15           
   1529000   228.95191      55.6772        20           
   1530000   151.62556      36.580509      13           
   1531000   185.54836      45.494359      22           
   1532000   195.00746      47.663519      16           
   1533000   205.76886      50.371605      19           
   1534000   186.99053      45.837831      17           
   1535000   284.67984      69.052223      19           
   1536000   160.86502      39.375582      17           
   1537000   139.00285      34.093583      15           
   1538000   183.72167      45.071132      17           
   1539000   188.23469      45.912134      18           
   1540000   255.1511       62.599888      14           
   1541000   108.07353      26.512849      10           
   1542000   193.63733      47.418453      14           
   1543000   120.81741      29.638412      9            
   1544000   175.98373      43.166816      8            
   1545000   179.41621      43.637547      14           
   1546000   169.28292      41.435944      18           
   1547000   182.44059      44.6678        17           
   1548000   230.93154      56.585797      19           
   1549000   155.81514      38.058311      14           
   1550000   299.36867      72.483996      16           
   1551000   194.14772      46.224326      20           
   1552000   183.68107      44.930224      14           
   1553000   129.9959       31.889224      13           
   1554000   173.5875       41.7112        14           
   1555000   180.44294      43.298694      14           
   1556000   195.55664      47.136039      20           
   1557000   213.17593      51.68714       21           
   1558000   322.08616      79.00865       15           
   1559000   192.11659      46.400609      18           
   1560000   225.95424      53.856839      16           
   1561000   252.69116      61.976929      14           
   1562000   135.75205      33.306831      5            
   1563000   187.75148      45.911907      15           
   1564000   152.85455      36.677814      14           
   1565000   285.27981      69.96254       17           
   1566000   172.83189      42.069365      19           
   1567000   202.1017       49.53591       17           
   1568000   186.52942      45.758197      12           
   1569000   139.09423      34.112662      17           
   1570000   101.97768      24.148073      19           
   1571000   198.59851      48.712301      13           
   1572000   198.3988       48.442579      14           
   1573000   231.01592      56.675433      14           
   1574000   191.96914      46.146053      15           
   1575000   240.45241      58.239908      17           
   1576000   143.81676      34.58905       10           
   1577000   263.64336      64.404131      19           
   1578000   190.47043      46.069236      15           
   1579000   191.19584      46.275246      12           
   1580000   183.30969      44.843595      16           
   1581000   95.316449      23.389224      10           
   1582000   198.19827      48.172811      15           
   1583000   195.14308      46.942384      21           
   1584000   291.10161      70.905616      17           
   1585000   155.01062      37.863851      17           
   1586000   195.55327      46.8002        17           
   1587000   325.58962      78.856115      20           
   1588000   202.95881      47.328996      23           
   1589000   174.082        42.53167       19           
   1590000   190.92225      46.809909      13           
   1591000   195.57875      47.161988      17           
   1592000   345.67273      84.143617      25           
   1593000   197.31204      48.397863      13           
   1594000   141.72446      34.722781      11           
   1595000   131.45932      32.258571      10           
   1596000   251.86705      61.726441      15           
   1597000   328.67568      79.723549      17           
   1598000   224.80494      54.324678      17           
   1599000   208.66195      50.986119      17           
   1600000   180.4124       44.266047      10           
   1601000   122.35995      30.000834      16           
   1602000   178.48215      43.797191      13           
   1603000   215.76187      52.346585      13           
   1604000   187.80185      46.083915      13           
   1605000   180.1544       42.11084       22           
   1606000   100.86071      23.839086      12           
   1607000   98.585486      24.17514       11           
   1608000   205.0297       49.892727      15           
   1609000   211.5951       51.243791      22           
   1610000   183.165        44.905549      13           
   1611000   190.33129      46.680316      18           
   1612000   183.43133      44.215601      15           
   1613000   150.00567      36.769296      12           
   1614000   201.12219      49.329998      10           
   1615000   297.011        70.2927        19           
   1616000   225.04007      54.52865       15           
   1617000   195.7841       47.373708      21           
   1618000   242.35328      58.919396      17           
   1619000   231.16625      56.863441      18           
   1620000   294.28623      71.897733      16           
   1621000   243.94879      59.194696      14           
   1622000   210.67516      51.464612      21           
   1623000   264.81841      64.782443      17           
   1624000   152.02006      37.279315      11           
   1625000   115.69418      28.391316      8            
   1626000   172.99908      42.219821      12           
   1627000   131.70032      31.615044      12           
   1628000   160.86589      39.435563      9            
   1629000   118.98915      29.087793      8            
   1630000   194.26653      47.335256      15           
   1631000   203.11819      49.039499      16           
   1632000   292.3825       71.744068      12           
   1633000   286.89001      70.240747      15           
   1634000   206.15754      50.813029      17           
   1635000   289.08886      69.939486      17           
   1636000   201.27547      48.850764      18           
   1637000   221.40135      54.189129      10           
   1638000   99.340565      24.353957      13           
   1639000   166.75568      40.874908      15           
   1640000   104.5764       24.125496      11           
   1641000   197.05778      47.12679       17           
   1642000   197.00366      47.758516      15           
   1643000   228.98314      55.58763       20           
   1644000   172.35838      42.238037      22           
   1645000   177.72986      41.163848      25           
   1646000   183.33738      42.424572      18           
   1647000   129.0369       31.091161      14           
   1648000   192.52049      46.23796       14           
   1649000   86.308633      21.098542      8            
   1650000   225.13565      54.903649      15           
   1651000   197.55403      48.009164      18           
   1652000   167.16726      40.961627      10           
   1653000   185.94864      44.968143      16           
   1654000   180.28062      44.094279      14           
   1655000   180.31567      44.236768      11           
   1656000   201.44119      49.280116      16           
   1657000   200.52018      48.932524      16           
   1658000   200.43641      49.096171      17           
   1659000   95.497009      23.441235      7            
   1660000   138.80118      34.049526      11           
   1661000   182.89828      44.857448      14           
   1662000   178.31481      46.474699      16           
   1663000   161.04267      38.958422      20           
   1664000   142.10981      34.543196      10           
   1665000   203.17696      49.536663      20           
   1666000   159.77314      39.189981      16           
   1667000   180.18723      44.204381      18           
   1668000   205.04138      50.143984      16           
   1669000   205.4118       50.329157      13           
   1670000   260.94017      63.991603      13           
   1671000   190.49084      46.576054      17           
   1672000   307.12156      73.235425      20           
   1673000   174.27088      42.392563      12           
   1674000   185.75481      45.159861      20           
   1675000   263.99078      63.621777      17           
   1676000   189.85122      46.580925      13           
   1677000   189.49119      46.490117      15           
   1678000   181.62419      44.448811      13           
   1679000   114.8835       28.190703      7            
   1680000   172.72901      42.304471      11           
   1681000   169.96947      41.660987      17           
   1682000   156.34267      37.976362      17           
   1683000   300.79981      72.715532      19           
   1684000   313.87779      76.067996      18           
   1685000   121.44645      29.803024      12           
   1686000   196.27297      48.068318      15           
   1687000   189.54254      45.932312      13           
   1688000   215.46294      51.283854      20           
   1689000   215.29141      52.110862      14           
   1690000   324.52174      78.83938       17           
   1691000   178.01714      43.658553      10           
   1692000   168.61702      40.338387      18           
   1693000   255.08817      62.554349      14           
   1694000   186.45451      44.774523      18           
   1695000   182.73127      44.014982      14           
   1696000   174.5306       42.190917      14           
   1697000   173.91393      42.620425      14           
   1698000   189.07366      46.112495      17           
   1699000   218.02559      53.180348      18           
   1700000   322.67124      78.544863      21           
   1701000   169.23731      40.492834      24           
   1702000   238.52588      58.243437      11           
   1703000   141.03509      34.568989      13           
   1704000   202.27317      49.41158       18           
   1705000   268.54756      65.456159      20           
   1706000   202.66496      49.516884      19           
   1707000   160.14847      39.282331      17           
   1708000   264.19424      64.804781      13           
   1709000   188.00375      44.758832      14           
   1710000   201.11901      49.26415       17           
   1711000   296.27397      73.5771        21           
   1712000   168.81215      41.318231      13           
   1713000   145.25392      35.556254      17           
   1714000   246.75887      60.730609      17           
   1715000   169.51188      41.342217      17           
   1716000   238.60357      57.848364      18           
   1717000   162.85223      39.281231      15           
   1718000   204.06051      49.37932       17           
   1719000   190.96295      45.817566      20           
   1720000   266.5745       63.767304      22           
   1721000   255.60731      62.68339       11           
   1722000   208.32668      51.07915       15           
   1723000   179.81619      43.919407      13           
   1724000   199.30528      47.939879      13           
   1725000   162.88781      39.037492      13           
   1726000   187.14778      45.387285      12           
   1727000   184.5065       45.00103       15           
   1728000   212.6326       51.292735      23           
   1729000   211.94052      51.919994      14           
   1730000   292.8791       71.301411      16           
   1731000   209.13039      50.650639      21           
   1732000   235.47903      57.42682       24           
   1733000   217.64064      53.308655      15           
   1734000   295.86838      73.045608      21           
   1735000   319.41585      78.03357       8            
   1736000   172.42975      41.98668       12           
   1737000   121.52335      29.48032       12           
   1738000   132.9709       32.615121      10           
   1739000   172.08841      42.178173      16           
   1740000   177.35334      43.038686      13           
   1741000   261.62764      63.69794       18           
   1742000   193.80016      47.469797      18           
   1743000   166.89022      40.700039      18           
   1744000   211.06578      51.788403      13           
   1745000   205.06481      49.485826      20           
   1746000   165.83217      40.64086       14           
   1747000   131.53012      32.263779      10           
   1748000   241.48137      58.353373      19           
   1749000   196.30389      47.856884      15           
   1750000   170.87967      40.326596      20           
   1751000   180.49484      44.121888      13           
   1752000   135.10036      32.085113      15           
   1753000   277.68484      68.073318      14           
   1754000   182.22628      43.742618      16           
   1755000   185.13436      44.473248      16           
   1756000   156.03104      38.278775      11           
   1757000   295.59982      71.620455      25           
   1758000   261.69022      63.343276      20           
   1759000   306.80139      74.412276      17           
   1760000   218.64507      53.651907      14           
   1761000   243.36544      59.221057      14           
   1762000   124.40175      30.018259      20           
   1763000   171.05366      42.457592      15           
   1764000   153.20657      37.595291      9            
   1765000   192.18536      47.087941      17           
   1766000   330.74382      80.390118      18           
   1767000   183.64392      44.235292      10           
   1768000   184.95657      45.387429      10           
   1769000   153.77488      37.726176      15           
   1770000   247.56977      60.565663      18           
   1771000   199.39095      48.866683      16           
   1772000   198.14702      48.347265      15           
   1773000   198.09588      46.873383      24           
   1774000   297.96491      71.385888      24           
   1775000   227.32767      55.329144      20           
   1776000   329.20939      80.648358      13           
   1777000   308.36983      75.105841      14           
   1778000   95.115463      23.339703      6            
   1779000   220.12627      53.139215      16           
   1780000   244.3177       59.869709      17           
   1781000   247.82949      60.516668      17           
   1782000   200.75318      49.241823      19           
   1783000   202.34999      49.147315      14           
   1784000   160.16883      39.296814      8            
   1785000   181.28445      44.324221      16           
   1786000   127.61627      31.214914      11           
   1787000   176.19799      43.17751       17           
   1788000   184.21226      45.095929      16           
   1789000   247.84123      59.772296      21           
   1790000   252.05308      61.818         12           
   1791000   164.83477      40.412227      14           
   1792000   153.66118      37.592445      9            
   1793000   195.32015      47.709677      16           
   1794000   150.76515      36.868444      16           
   1795000   235.13121      57.637905      12           
   1796000   215.65161      49.726039      26           
   1797000   316.64104      77.361155      14           
   1798000   181.82462      43.70181       22           
   1799000   162.14128      38.267577      21           
   1800000   256.84542      62.217229      14           
   1801000   162.72644      39.079729      14           
   1802000   113.55259      27.502053      10           
   1803000   168.27067      41.242991      10           
   1804000   247.92573      60.804186      15           
   1805000   223.56939      54.341453      22           
   1806000   250.58395      61.178485      20           
   1807000   102.2177       25.049646      11           
   1808000   176.69357      43.310935      12           
   1809000   220.05594      53.977568      12           
   1810000   196.70928      47.853138      18           
   1811000   179.33578      43.016903      17           
   1812000   198.94557      47.611292      21           
   1813000   181.20219      44.216036      19           
   1814000   201.4745       48.584814      20           
   1815000   139.31072      34.077355      13           
   1816000   116.73154      28.602854      16           
   1817000   196.96039      47.646679      21           
   1818000   181.84847      44.201511      12           
   1819000   208.46337      50.807625      19           
   1820000   186.73509      45.817053      8            
   1821000   163.17042      39.799431      20           
   1822000   253.46295      61.695697      11           
   1823000   308.24504      73.828308      21           
   1824000   194.78026      47.774681      18           
   1825000   281.69106      68.247911      22           
   1826000   232.24977      56.577612      20           
   1827000   293.21214      71.755374      14           
   1828000   285.55915      69.948873      15           
   1829000   146.43896      35.277565      16           
   1830000   193.01498      47.219264      20           
   1831000   260.4252       63.411879      16           
   1832000   284.95958      69.876863      18           
   1833000   204.87728      50.223815      18           
   1834000   178.7521       43.512066      19           
   1835000   228.23351      55.941143      14           
   1836000   196.25474      47.460626      16           
   1837000   310.29313      75.506463      16           
   1838000   266.76739      64.123123      20           
   1839000   277.29707      67.881904      22           
   1840000   271.07226      66.227497      22           
   1841000   314.96485      76.885128      14           
   1842000   221.79105      53.53783       18           
   1843000   204.63259      48.888766      23           
   1844000   180.76073      42.007685      18           
   1845000   317.09652      77.297076      19           
   1846000   218.2071       53.430487      16           
   1847000   199.71563      49.007914      12           
   1848000   155.38312      37.863685      9            
   1849000   311.13932      75.948237      19           
   1850000   218.22581      52.603953      18           
   1851000   175.4521       42.51261       15           
   1852000   167.76996      41.021192      15           
   1853000   115.74725      28.385475      13           
   1854000   142.38111      34.926041      13           
   1855000   196.78919      48.055441      15           
   1856000   185.61781      45.524678      13           
   1857000   298.29524      72.796069      16           
   1858000   167.78631      41.132657      12           
   1859000   176.23238      43.229422      12           
   1860000   279.82511      68.504896      16           
   1861000   208.42117      50.823149      15           
   1862000   176.55682      43.315177      15           
   1863000   67.826425      16.638881      11           
   1864000   92.940934      22.798818      9            
   1865000   171.26347      41.912539      14           
   1866000   184.73113      44.710885      26           
   1867000   193.3794       47.414651      11           
   1868000   185.29267      44.828364      12           
   1869000   169.52983      41.600398      9            
   1870000   203.39493      48.998164      15           
   1871000   202.82949      49.716242      15           
   1872000   203.45971      49.699171      17           
   1873000   181.42251      44.355878      16           
   1874000   202.91492      47.131766      21           
   1875000   323.0929       79.229764      13           
   1876000   147.36546      35.728503      12           
   1877000   193.12976      46.233042      17           
   1878000   229.76028      56.331966      15           
   1879000   277.91127      67.997501      11           
   1880000   163.86722      40.068692      16           
   1881000   197.60076      48.019645      11           
   1882000   207.46264      50.086654      12           
   1883000   170.27281      41.198847      16           
   1884000   180.32269      43.826444      15           
   1885000   187.107        45.597743      14           
   1886000   116.71899      28.642232      13           
   1887000   214.51776      51.447153      21           
   1888000   310.16208      76.076631      9            
   1889000   259.40857      63.339169      19           
   1890000   203.58872      49.807353      17           
   1891000   321.67179      78.885229      17           
   1892000   165.07434      40.265535      12           
   1893000   181.00988      43.584926      15           
   1894000   161.28945      39.473442      13           
   1895000   293.73687      72.059432      10           
   1896000   241.74618      59.082796      23           
   1897000   194.43456      45.65958       16           
   1898000   256.38909      62.905013      10           
   1899000   276.18037      67.73582       16           
   1900000   180.46213      44.028386      18           
   1901000   304.00124      73.8059        22           
   1902000   134.99378      33.017886      14           
   1903000   192.51676      46.646834      19           
   1904000   146.90722      35.546894      18           
   1905000   318.175        77.152744      24           
   1906000   213.74297      51.446627      21           
   1907000   173.94941      42.550734      12           
   1908000   151.3974       37.078097      12           
   1909000   166.7745       39.993668      13           
   1910000   96.072217      23.572995      8            
   1911000   188.71032      45.990412      14           
   1912000   323.37471      78.111967      21           
   1913000   171.92435      41.695622      17           
   1914000   205.11686      50.308183      17           
   1915000   207.37795      49.86277       22           
   1916000   280.36278      67.989895      15           
   1917000   157.62744      38.579437      13           
   1918000   119.48315      29.307604      9            
   1919000   170.33408      41.772547      16           
   1920000   184.07947      43.904101      17           
   1921000   293.41927      71.019654      18           
   1922000   197.15192      47.774299      19           
   1923000   192.25933      47.079211      14           
   1924000   205.32376      49.789424      17           
   1925000   221.66156      53.322942      23           
   1926000   306.98376      75.19366       18           
   1927000   130.34619      31.942564      9            
   1928000   190.46438      46.720158      13           
   1929000   212.19181      51.700402      17           
   1930000   156.01732      37.330308      16           
   1931000   250.95024      61.479703      22           
   1932000   251.16093      60.062539      26           
   1933000   186.38965      45.733045      12           
   1934000   141.45069      34.675682      12           
   1935000   185.70732      45.491042      14           
   1936000   191.43745      46.277421      17           
   1937000   253.55699      61.450864      25           
   1938000   180.24739      44.205522      19           
   1939000   169.5811       41.179661      19           
   1940000   134.60139      32.579617      13           
   1941000   188.05773      45.980114      12           
   1942000   194.67516      46.218432      22           
   1943000   192.9521       47.175209      15           
   1944000   163.03579      40.001874      11           
   1945000   212.38397      52.189033      18           
   1946000   345.60859      84.439002      17           
   1947000   265.90206      63.720464      14           
   1948000   232.60189      56.127303      18           
   1949000   302.08593      74.0826        14           
   1950000   148.61236      36.243355      14           
   1951000   196.11224      47.740406      14           
   1952000   199.67383      48.705876      18           
   1953000   192.52762      46.60577       13           
   1954000   166.00215      40.469456      19           
   1955000   186.39444      45.524295      18           
   1956000   221.36279      52.461789      24           
   1957000   210.85053      50.256734      24           
   1958000   194.18633      47.19971       16           
   1959000   160.52496      38.468375      16           
   1960000   266.69591      64.683411      17           
   1961000   151.40355      36.16412       13           
   1962000   186.4177       45.626947      15           
   1963000   155.16325      38.004808      17           
   1964000   233.52021      57.285464      16           
   1965000   212.77361      51.867405      17           
   1966000   159.80479      39.207147      8            
   1967000   185.72957      44.565132      18           
   1968000   213.96312      51.817986      20           
   1969000   201.4454       48.534552      17           
   1970000   313.98558      76.836929      25           
   1971000   201.5723       49.105512      13           
   1972000   307.95959      74.744442      19           
   1973000   136.28914      33.428314      16           
   1974000   181.51947      44.523596      11           
   1975000   276.25584      66.263935      21           
   1976000   271.73936      66.569917      20           
   1977000   329.26257      79.920785      23           
   1978000   180.00494      43.165137      17           
   1979000   186.86567      44.971039      16           
   1980000   108.48488      26.313412      9            
   1981000   167.55593      41.083506      11           
   1982000   207.01226      50.727782      13           
   1983000   150.47496      36.873903      17           
   1984000   178.65724      43.816817      15           
   1985000   195.86647      47.56662       17           
   1986000   169.45919      41.462283      23           
   1987000   204.84612      49.002915      18           
   1988000   214.8213       52.632291      21           
   1989000   220.4436       53.055089      19           
   1990000   187.08052      45.860458      14           
   1991000   165.53399      40.557817      13           
   1992000   164.57097      39.937026      17           
   1993000   160.01612      39.155414      6            
   1994000   169.88875      41.438216      19           
   1995000   140.69259      34.459573      14           
   1996000   190.62325      46.769562      13           
   1997000   175.91388      43.126206      11           
   1998000   159.97318      40.39976       10           
   1999000   311.62188      75.303113      17           
   2000000   199.90763      48.772861      18           
   2001000   184.44523      45.113129      17           
   2002000   164.67307      40.383054      12           
   2003000   212.0831       51.965871      18           
   2004000   164.85571      40.446986      13           
   2005000   202.40874      48.767695      24           
   2006000   241.03551      59.109988      16           
   2007000   218.17191      52.963061      15           
   2008000   256.21966      61.956597      19           
   2009000   331.42966      80.726957      15           
   2010000   195.30151      47.897589      12           
   2011000   209.27356      50.066072      17           
   2012000   253.58327      61.960556      19           
   2013000   184.83588      44.00954       15           
   2014000   140.81579      34.130026      12           
   2015000   132.76981      32.513964      11           
   2016000   190.26559      46.377434      13           
   2017000   184.7104       45.162202      17           
   2018000   215.4059       50.394033      25           
   2019000   301.68757      73.504064      21           
   2020000   230.65861      56.227618      23           
   2021000   203.48278      49.187506      24           
   2022000   298.24864      72.988147      18           
   2023000   191.80116      47.031289      14           
   2024000   178.18811      43.246986      18           
   2025000   189.21293      44.839185      15           
   2026000   201.53614      49.454769      12           
   2027000   163.31191      39.743656      22           
   2028000   327.00221      79.209772      24           
   2029000   175.75127      42.787408      16           
   2030000   224.65118      54.475787      15           
   2031000   111.76577      27.407071      10           
   2032000   187.55805      44.881354      19           
   2033000   208.91918      50.93258       19           
   2034000   212.97472      51.541611      21           
   2035000   207.19515      50.299953      22           
   2036000   194.56271      47.724962      11           
   2037000   234.18194      57.375513      17           
   2038000   110.78946      26.974411      10           
   2039000   282.44043      68.504619      19           
   2040000   283.44076      69.480931      18           
   2041000   295.91133      70.810308      20           
   2042000   264.90466      64.474809      13           
   2043000   165.33804      39.223934      16           
   2044000   173.62874      42.599527      9            
   2045000   220.78722      53.41238       17           
   2046000   295.49896      72.424442      17           
   2047000   170.49465      41.820982      16           
   2048000   204.07188      49.535888      19           
   2049000   301.80927      73.907768      12           
   2050000   184.00569      45.15025       10           
   2051000   139.44565      33.970616      15           
   2052000   156.20339      37.610858      10           
   2053000   311.45342      76.38852       15           
   2054000   193.45813      47.457256      14           
   2055000   290.80881      71.273682      15           
   2056000   216.99883      52.700882      17           
   2057000   158.6845       38.770425      14           
   2058000   184.58666      44.360481      19           
   2059000   74.71012       18.326423      8            
   2060000   152.87089      37.505004      11           
   2061000   122.18345      29.704697      15           
   2062000   196.43703      48.20471       6            
   2063000   160.12994      38.870475      18           
   2064000   308.92767      75.482543      16           
   2065000   176.56445      43.292937      15           
   2066000   333.71367      81.68706       18           
   2067000   197.57229      48.100409      17           
   2068000   262.91985      64.39668       12           
   2069000   195.26228      46.812132      17           
   2070000   225.47592      54.98249       14           
   2071000   163.45197      40.00209       14           
   2072000   128.79689      31.577891      12           
   2073000   158.37653      38.780951      16           
   2074000   168.57542      41.263296      12           
   2075000   191.21695      46.88376       17           
   2076000   170.52666      41.840255      13           
   2077000   197.04828      47.751243      17           
   2078000   158.78234      38.84631       14           
   2079000   200.38212      48.927386      16           
   2080000   172.20727      42.196035      13           
   2081000   141.69153      34.134614      16           
   2082000   120.18413      28.488968      13           
   2083000   199.5818       48.578774      18           
   2084000   205.36337      50.394885      8            
   2085000   228.72458      56.029964      13           
   2086000   231.2267       55.566074      23           
   2087000   290.85915      71.365759      7            
   2088000   181.39291      44.480966      14           
   2089000   171.36867      41.615899      15           
   2090000   297.28608      72.845533      13           
   2091000   204.24395      49.735258      14           
   2092000   197.50549      48.343996      16           
   2093000   153.2173       37.32096       15           
   2094000   183.66434      44.359676      19           
   2095000   171.90415      42.073004      16           
   2096000   149.54645      36.682227      11           
   2097000   131.61665      32.238966      19           
   2098000   206.16192      50.47544       14           
   2099000   238.82319      58.557982      20           
   2100000   201.61455      49.402112      16           
   2101000   165.66064      39.927292      24           
   2102000   89.645208      21.975094      14           
   2103000   141.88814      34.774641      8            
   2104000   156.85209      38.13294       13           
   2105000   192.29294      47.095434      18           
   2106000   187.96883      46.104502      11           
   2107000   199.70118      48.973933      12           
   2108000   119.37251      29.63812       13           
   2109000   324.32204      79.021879      14           
   2110000   102.90108      25.113617      11           
   2111000   277.13832      67.377991      17           
   2112000   278.4764       68.185577      20           
   2113000   162.25911      39.346771      19           
   2114000   182.52796      44.785808      10           
   2115000   167.46428      40.445335      22           
   2116000   216.1702       52.792475      20           
   2117000   253.15684      60.835374      14           
   2118000   312.29049      76.190055      13           
   2119000   289.95584      70.22094       21           
   2120000   258.57375      63.429491      15           
   2121000   238.12266      57.712486      13           
   2122000   111.71447      27.413923      6            
   2123000   196.22842      47.946682      16           
   2124000   171.66635      42.020632      17           
   2125000   225.94267      55.004921      21           
   2126000   209.14885      51.031039      17           
   2127000   214.97077      51.390684      23           
   2128000   309.02641      74.602531      15           
   2129000   306.20408      75.018489      13           
   2130000   215.88866      52.735436      19           
   2131000   153.28444      36.506983      10           
   2132000   192.90859      47.212229      16           
   2133000   298.72261      72.950069      20           
   2134000   154.32129      37.803525      9            
   2135000   198.47486      48.388877      16           
   2136000   255.4301       62.512509      15           
   2137000   171.64916      41.719613      23           
   2138000   176.20243      43.056173      12           
   2139000   220.10345      53.932543      13           
   2140000   232.51515      56.476918      18           
   2141000   227.55511      55.824573      16           
   2142000   196.8903       48.031932      19           
   2143000   164.25557      40.010168      15           
   2144000   195.69154      48.004685      15           
   2145000   191.31426      46.86379       18           
   2146000   187.41741      45.98588       14           
   2147000   178.6542       43.678047      20           
   2148000   166.37767      40.259551      19           
   2149000   258.36632      60.56201       20           
   2150000   200.8622       49.130222      23           
   2151000   124.37392      30.430625      14           
   2152000   186.04542      45.47577       18           
   2153000   146.51356      35.929195      12           
   2154000   201.31341      49.078829      16           
   2155000   190.18024      46.049487      16           
   2156000   192.6432       47.464519      21           
   2157000   297.84205      70.764034      17           
   2158000   169.77418      41.599588      17           
   2159000   211.42362      51.705774      16           
   2160000   276.23935      67.617738      19           
   2161000   260.51188      63.484585      12           
   2162000   318.81159      77.862439      24           
   2163000   178.77954      43.735553      11           
   2164000   192.33334      47.498575      12           
   2165000   203.49222      49.41968       13           
   2166000   262.63608      64.375177      16           
   2167000   189.89976      46.590356      12           
   2168000   182.9992       44.397731      19           
   2169000   164.80172      39.827452      15           
   2170000   210.69867      51.274358      19           
   2171000   269.62408      65.992989      16           
   2172000   210.8714       51.054716      18           
   2173000   211.78417      51.169705      15           
   2174000   242.22326      59.392819      16           
   2175000   188.5869       46.215207      16           
   2176000   252.39303      61.750845      11           
   2177000   180.96         44.644804      18           
   2178000   206.88476      49.978955      19           
   2179000   283.81805      69.36021       23           
   2180000   199.31792      48.835409      18           
   2181000   166.12175      40.599304      15           
   2182000   168.22547      41.062417      12           
   2183000   252.79057      61.901439      18           
   2184000   236.71864      57.695941      17           
   2185000   175.40565      43.031825      12           
   2186000   157.6805       38.612137      12           
   2187000   171.89184      41.06101       20           
   2188000   182.7725       44.808834      13           
   2189000   210.95482      51.4522        13           
   2190000   185.90562      45.61626       17           
   2191000   119.48228      29.28222       14           
   2192000   145.60127      35.668378      12           
   2193000   205.605        50.32291       17           
   2194000   297.51863      72.795261      17           
   2195000   200.19052      48.260553      21           
   2196000   156.7915       38.473646      9            
   2197000   193.58178      46.964585      20           
   2198000   165.00996      40.322173      14           
   2199000   165.97468      40.340293      17           
   2200000   200.94751      49.22835       17           
   2201000   107.44745      26.353053      13           
   2202000   170.64596      41.49043       12           
   2203000   167.57333      41.114901      11           
   2204000   154.17086      37.809658      10           
   2205000   200.57251      49.013359      17           
   2206000   120.83775      29.62768       12           
   2207000   323.72134      78.752655      23           
   2208000   170.90681      41.902255      13           
   2209000   229.81278      55.956814      23           
   2210000   167.71729      40.126428      14           
   2211000   177.35239      45.693121      13           
   2212000   301.76362      73.56469       16           
   2213000   201.13471      50.013343      21           
   2214000   181.25775      43.572909      13           
   2215000   166.5596       40.858394      10           
   2216000   171.71925      41.548451      15           
   2217000   326.21342      79.477491      20           
   2218000   233.97129      55.559203      22           
   2219000   146.67343      35.893943      16           
   2220000   189.35994      46.43069       14           
   2221000   141.83967      34.702446      15           
   2222000   272.36438      66.15227       16           
   2223000   179.49454      43.289664      17           
   2224000   166.74005      40.517421      14           
   2225000   221.95844      53.750967      19           
   2226000   196.11152      46.44155       21           
   2227000   149.5143       36.126121      10           
   2228000   203.45859      49.751377      19           
   2229000   161.20819      39.379977      17           
   2230000   166.19119      40.645473      16           
   2231000   340.32101      82.902688      15           
   2232000   181.82248      44.281986      22           
   2233000   170.35496      41.406819      19           
   2234000   91.221061      22.317181      9            
   2235000   206.57114      50.389008      16           
   2236000   262.49676      64.385624      11           
   2237000   198.68859      47.138513      16           
   2238000   179.05283      43.512614      23           
   2239000   174.91465      42.779972      9            
   2240000   204.20234      49.851791      19           
   2241000   188.58304      45.130941      17           
   2242000   166.07274      40.444858      17           
   2243000   155.5503       37.834068      12           
   2244000   152.77941      37.326842      16           
   2245000   154.00184      37.772517      14           
   2246000   230.86817      56.421222      17           
   2247000   248.71825      59.546508      20           
   2248000   214.75485      52.55287       17           
   2249000   158.57712      38.805149      13           
   2250000   151.40595      36.578249      10           
   2251000   316.72773      76.610468      22           
   2252000   171.16426      41.956255      14           
   2253000   194.51117      47.623689      16           
   2254000   192.4792       47.04606       18           
   2255000   237.13705      58.143399      16           
   2256000   319.11808      77.44604       18           
   2257000   158.92591      38.949626      13           
   2258000   201.86391      49.184869      20           
   2259000   171.29592      39.693084      26           
   2260000   203.90866      50.010561      17           
   2261000   195.85582      47.164199      17           
   2262000   163.33281      40.01695       10           
   2263000   208.94649      51.225183      21           
   2264000   174.37277      42.512738      10           
   2265000   306.7653       74.74027       18           
   2266000   320.9847       78.351677      15           
   2267000   177.49399      43.365135      18           
   2268000   161.64277      39.599301      9            
   2269000   125.67434      30.832284      9            
   2270000   126.47853      31.016005      15           
   2271000   188.74838      45.849381      14           
   2272000   231.95132      55.332799      20           
   2273000   195.83162      47.791162      16           
   2274000   200.73831      47.188493      17           
   2275000   213.60438      51.733166      21           
   2276000   172.17522      41.803745      9            
   2277000   187.73995      45.854748      20           
   2278000   170.0985       41.727642      15           
   2279000   256.60866      60.790095      23           
   2280000   199.71279      48.669956      17           
   2281000   188.71392      45.998217      20           
   2282000   232.82492      56.848256      16           
   2283000   278.3836       67.810323      18           
   2284000   145.17817      35.602125      12           
   2285000   160.49042      39.31736       12           
   2286000   194.6226       47.751395      10           
   2287000   138.46503      33.75097       8            
   2288000   264.33893      63.602768      15           
   2289000   305.1615       72.7488        24           
   2290000   128.30057      31.449437      9            
   2291000   150.88839      36.753695      10           
   2292000   248.76643      60.117249      20           
   2293000   322.08449      78.460634      17           
   2294000   169.6291       40.706222      20           
   2295000   220.27228      53.878589      13           
   2296000   288.9489       70.905984      13           
   2297000   199.99983      47.888898      17           
   2298000   310.68948      75.54603       18           
   2299000   309.6905       75.804421      15           
   2300000   219.27345      52.774049      20           
   2301000   215.35847      52.301548      18           
   2302000   181.83838      44.025775      10           
   2303000   122.83902      30.124273      11           
   2304000   175.78642      43.08969       15           
   2305000   172.96758      42.384331      16           
   2306000   189.15048      44.570653      29           
   2307000   317.47636      77.790401      22           
   2308000   178.15685      43.692621      15           
   2309000   220.10281      52.692915      25           
   2310000   291.21269      71.195164      14           
   2311000   193.09158      46.50432       14           
   2312000   235.36955      56.99669       17           
   2313000   97.028745      23.767096      11           
   2314000   223.67306      54.791058      18           
   2315000   235.38775      57.192222      16           
   2316000   179.19867      43.475826      14           
   2317000   256.54613      61.564679      21           
   2318000   147.26735      36.117012      14           
   2319000   68.304382      16.761232      5            
   2320000   172.34241      42.239894      16           
   2321000   282.98209      69.267291      21           
   2322000   248.65114      60.170443      16           
   2323000   187.26205      45.076971      18           
   2324000   181.73163      44.584317      12           
   2325000   188.2895       45.495994      17           
   2326000   232.61742      56.395739      13           
   2327000   158.98233      38.717747      13           
   2328000   185.31864      45.303796      19           
   2329000   274.45919      65.324647      26           
   2330000   166.35872      40.742194      20           
   2331000   182.33161      44.478175      19           
   2332000   223.58952      53.342091      21           
   2333000   250.83413      60.352012      19           
   2334000   201.52141      47.672962      22           
   2335000   170.457        41.760396      20           
   2336000   227.96157      54.928205      14           
   2337000   165.91873      40.682009      14           
   2338000   163.40336      38.534347      18           
   2339000   170.16202      41.363319      21           
   2340000   181.81802      44.551574      17           
   2341000   177.75908      43.527432      18           
   2342000   172.85409      42.40126       12           
   2343000   138.13695      33.580722      15           
   2344000   292.35943      70.999913      17           
   2345000   197.41872      48.073564      26           
   2346000   202.10701      49.518296      17           
   2347000   180.15226      44.147882      18           
   2348000   216.95023      53.195366      18           
   2349000   175.9973       42.686122      21           
   2350000   109.74085      24.840273      18           
   2351000   147.09605      35.648849      18           
   2352000   228.36419      55.785825      15           
   2353000   188.78772      46.238155      19           
   2354000   198.84718      48.781701      12           
   2355000   154.42176      37.692459      16           
   2356000   204.15943      50.083015      18           
   2357000   222.41436      53.302181      15           
   2358000   316.53267      76.626658      13           
   2359000   176.56339      43.233963      13           
   2360000   124.47309      30.54666       10           
   2361000   162.1914       38.348005      20           
   2362000   218.60056      53.513091      13           
   2363000   180.26798      43.249126      16           
   2364000   166.83548      40.461704      23           
   2365000   217.70658      53.207111      15           
   2366000   155.37423      37.940178      15           
   2367000   166.07848      40.72072       12           
   2368000   197.27292      48.267043      14           
   2369000   189.40743      46.463626      16           
   2370000   162.68434      38.585944      16           
   2371000   355.63837      86.483357      23           
   2372000   275.84886      67.697559      17           
   2373000   152.74816      37.466729      14           
   2374000   193.74658      46.96275       14           
   2375000   110.91477      27.19545       7            
   2376000   210.40894      51.604907      15           
   2377000   209.2396       51.093517      18           
   2378000   199.33173      48.664442      14           
   2379000   134.21668      32.693016      16           
   2380000   187.86744      45.803398      19           
   2381000   224.26966      54.959836      15           
   2382000   248.58704      60.941004      11           
   2383000   144.04943      35.295061      13           
   2384000   199.0637       48.797337      19           
   2385000   189.9619       45.781897      20           
   2386000   331.90401      81.091982      17           
   2387000   160.45212      39.328249      10           
   2388000   238.00976      58.059951      19           
   2389000   161.85517      39.522408      14           
   2390000   213.37279      52.354333      11           
   2391000   228.29174      55.707512      18           
   2392000   236.88552      58.00462       16           
   2393000   287.26287      68.532522      14           
   2394000   108.25766      26.563665      7            
   2395000   195.81164      47.494647      18           
   2396000   334.25168      81.710965      18           
   2397000   186.06106      45.618349      11           
   2398000   146.56312      35.232237      17           
   2399000   268.26828      65.697037      17           
   2400000   190.90493      46.426304      23           
   2401000   199.33687      47.931391      19           
   2402000   239.80099      58.438794      26           
   2403000   225.61796      53.719552      29           
   2404000   217.59632      53.207488      15           
   2405000   309.75955      75.972058      17           
   2406000   202.83683      49.737111      10           
   2407000   192.37695      47.202861      17           
   2408000   153.87883      37.369907      17           
   2409000   194.45171      47.625195      16           
   2410000   172.82582      42.409376      7            
   2411000   169.65118      40.641816      17           
   2412000   291.50398      69.157089      23           
   2413000   255.15759      62.583963      11           
   2414000   178.14679      42.955217      19           
   2415000   118.29823      29.000376      17           
   2416000   262.51251      64.1162        18           
   2417000   202.35868      49.068501      22           
   2418000   330.09499      80.116528      24           
   2419000   142.84592      35.031343      10           
   2420000   196.96273      48.198527      13           
   2421000   152.44355      36.768674      24           
   2422000   180.49381      44.225349      12           
   2423000   195.21053      47.847425      15           
   2424000   148.41426      36.290847      14           
   2425000   235.80226      57.63126       19           
   2426000   169.81322      41.388116      17           
   2427000   194.09538      47.061453      18           
   2428000   215.89841      52.473915      17           
   2429000   304.88414      74.768052      14           
   2430000   200.64141      49.133815      12           
   2431000   151.40705      37.003813      18           
   2432000   101.31306      24.831703      8            
   2433000   206.12819      50.457774      19           
   2434000   141.87692      34.433052      13           
   2435000   172.98208      42.441936      12           
   2436000   106.98389      26.014834      12           
   2437000   229.57541      55.479957      21           
   2438000   182.5684       44.778278      15           
   2439000   165.16657      40.522537      11           
   2440000   179.51918      43.77564       15           
   2441000   184.73593      45.267428      12           
   2442000   159.42448      39.048148      20           
   2443000   258.63         63.425515      20           
   2444000   191.80326      46.961356      18           
   2445000   220.01525      52.881161      13           
   2446000   140.32138      34.394084      8            
   2447000   197.42963      47.708667      19           
   2448000   292.44199      71.334759      16           
   2449000   278.42315      68.294003      17           
   2450000   198.39357      47.349064      19           
   2451000   261.45016      63.882026      11           
   2452000   152.04358      37.155162      10           
   2453000   200.90088      49.234564      19           
   2454000   206.94654      50.519005      14           
   2455000   180.15733      44.203174      12           
   2456000   170.23786      40.909304      15           
   2457000   199.46994      48.924802      13           
   2458000   269.78533      66.070867      10           
   2459000   266.71266      64.36304       13           
   2460000   238.49309      57.624749      21           
   2461000   194.99859      47.766312      18           
   2462000   326.30623      80.031601      16           
   2463000   321.02158      77.197203      19           
   2464000   213.70577      51.215587      21           
   2465000   307.05692      75.349425      7            
   2466000   204.00631      49.987749      15           
   2467000   202.38955      49.436464      21           
   2468000   158.5011       38.841182      25           
   2469000   181.93353      44.458174      15           
   2470000   259.84216      63.408391      16           
   2471000   201.59576      48.665151      16           
   2472000   158.34663      38.692156      13           
   2473000   218.57418      53.598707      15           
   2474000   204.86127      50.236649      14           
   2475000   91.553291      21.824435      7            
   2476000   195.58509      47.492892      14           
   2477000   190.03243      46.462054      16           
   2478000   241.33469      58.87686       20           
   2479000   200.37416      49.116642      16           
   2480000   185.25632      44.911208      18           
   2481000   231.10673      56.420921      18           
   2482000   179.96634      44.098414      15           
   2483000   229.41902      56.290973      12           
   2484000   121.51554      29.801077      10           
   2485000   166.81446      40.91801       16           
   2486000   301.45726      73.725671      22           
   2487000   120.68042      28.621226      15           
   2488000   229.63741      56.191355      17           
   2489000   182.87102      43.608913      20           
   2490000   317.74051      77.90976       16           
   2491000   175.03224      42.046876      15           
   2492000   215.60434      51.881031      25           
   2493000   167.12499      40.956259      12           
   2494000   89.372106      21.702225      9            
   2495000   194.88458      47.795358      12           
   2496000   207.65575      50.935952      17           
   2497000   159.03928      39.520999      17           
   2498000   165.52507      40.535517      18           
   2499000   89.259595      21.394718      13           
   2500000   177.60927      43.095957      15           
   2501000   319.32777      78.052273      21           
   2502000   180.22739      43.539975      16           
Loop time of 603.887 on 8 procs for 2500000 steps with 48 atoms

Performance: 357.683 ns/day, 0.067 hours/ns, 4139.848 timesteps/s, 198.713 katom-step/s
799.0% CPU use with 1 MPI tasks x 8 OpenMP threads

MPI task timing breakdown:
Section |  min time  |  avg time  |  max time  |%varavg| %total
---------------------------------------------------------------
Pair    | 7.9079     | 7.9079     | 7.9079     |   0.0 |  1.31
Bond    | 12.293     | 12.293     | 12.293     |   0.0 |  2.04
Kspace  | 459.89     | 459.89     | 459.89     |   0.0 | 76.15
Neigh   | 0.73748    | 0.73748    | 0.73748    |   0.0 |  0.12
Comm    | 2.729      | 2.729      | 2.729      |   0.0 |  0.45
Output  | 0.052224   | 0.052224   | 0.052224   |   0.0 |  0.01
Modify  | 119.25     | 119.25     | 119.25     |   0.0 | 19.75
Other   |            | 1.024      |            |       |  0.17

Nlocal:             48 ave          48 max          48 min
Histogram: 1 0 0 0 0 0 0 0 0 0
Nghost:            121 ave         121 max         121 min
Histogram: 1 0 0 0 0 0 0 0 0 0
Neighs:            140 ave         140 max         140 min
Histogram: 1 0 0 0 0 0 0 0 0 0

Total # of neighbors = 140
Ave neighs/atom = 2.9166667
Ave special neighs/atom = 2
Neighbor list builds = 332957
Dangerous builds = 0
Total wall time: 0:10:04
