LAMMPS (27 Jun 2024)
  using 8 OpenMP thread(s) per MPI task
package omp 0
using multi-threaded neighbor list subroutines
# LAMMPS input script by Simon Gravelle
# For LAMMPS tutorials, see https://lammpstutorials.github.io
# Last tested using the 27Jun2024 LAMMPS version

variable Nstep equal 2500000
variable mu_K equal -3200
variable mu_kcal_mol equal ${mu_K}*0.0019872041
variable mu_kcal_mol equal -3200*0.0019872041
print "mu equal ${mu_kcal_mol}"
mu equal -6.35905312
variable tfac equal 5.0/3.0
variable Nattempt equal 100

units real
boundary p p p
atom_style full
pair_style lj/cut/coul/long 12
kspace_style ewald 1.0e-5
bond_style harmonic
angle_style harmonic
pair_modify mix geometric
special_bonds lj 0.0 0.0 0.0 coul 0.0 0.0 0.0 angle yes

read_data box.data
Reading data file ...
  orthogonal box = (-12.5 -12.5 -12.5) to (12.5 12.5 12.5)
  1 by 1 by 1 MPI processor grid
  reading atom labelmap ...
  reading bond labelmap ...
  reading angle labelmap ...
  reading atoms ...
  150 atoms
  reading velocities ...
  150 velocities
  scanning bonds ...
  1 = max bonds/atom
  scanning angles ...
  1 = max angles/atom
  orthogonal box = (-12.5 -12.5 -12.5) to (12.5 12.5 12.5)
  1 by 1 by 1 MPI processor grid
  reading bonds ...
  100 bonds
  reading angles ...
  50 angles
Finding 1-2 1-3 1-4 neighbors ...
  special bond factors lj:    0        0        0       
  special bond factors coul:  0        0        0       
     2 = max # of 1-2 neighbors
     1 = max # of 1-3 neighbors
     1 = max # of 1-4 neighbors
  100 = # of 1-3 neighbors before angle trim
  100 = # of 1-3 neighbors after angle trim
     2 = max # of special neighbors
  special bonds CPU = 0.000 seconds
  read_data CPU = 0.006 seconds
labelmap atom 1 O 2 C
labelmap bond 1 C-O
labelmap angle 1 O-C-O

group CO2 type C O
150 atoms in group CO2
include parm.lmp
# LAMMPS parameter file for H2O SPCE water model
# For conversion from K to kcal / mol, multiply
# by Boltzmann = 0.0019872041 kcal / (mol * K)

mass O 15.9994
mass C 12.0110

pair_coeff O O 0.164858 3.011
pair_coeff C C 0.05894 2.789

bond_coeff C-O 0.0 1.18 # rigid

angle_coeff O-C-O 0.0 180.0 # rigid

molecule CO2mol CO2.mol
Read molecule template CO2mol:
# LAMMPS molecule file for carbondioxide
  1 molecules
  0 fragments
  3 atoms with max type 2
  2 bonds with max type 1
  1 angles with max type 1
  0 dihedrals with max type 0
  0 impropers with max type 0

fix mynvt CO2 rigid/nvt/small molecule temp 300 300 100 mol CO2mol
  create bodies CPU = 0.000 seconds
  50 rigid bodies with 150 atoms
  1.18 = max distance from body owner to body atom
thermo 1000

run 2000

CITE-CITE-CITE-CITE-CITE-CITE-CITE-CITE-CITE-CITE-CITE-CITE-CITE

Your simulation uses code contributions which should be cited:

- Type Label Framework: https://doi.org/10.1021/acs.jpcb.3c08419

@Article{Gissinger24,
 author = {Jacob R. Gissinger, Ilia Nikiforov, Yaser Afshar, Brendon Waters, Moon-ki Choi, Daniel S. Karls, Alexander Stukowski, Wonpil Im, Hendrik Heinz, Axel Kohlmeyer, and Ellad B. Tadmor},
 title = {Type Label Framework for Bonded Force Fields in LAMMPS},
 journal = {J. Phys. Chem. B},
 year =    2024,
 volume =  128,
 number =  13,
 pages =   {3282â€“-3297}
}

CITE-CITE-CITE-CITE-CITE-CITE-CITE-CITE-CITE-CITE-CITE-CITE-CITE

Ewald initialization ...
  using 12-bit tables for long-range coulomb (src/kspace.cpp:342)
  G vector (1/distance) = 0.21801154
  estimated absolute RMS force accuracy = 0.0034006373
  estimated relative force accuracy = 1.0240918e-05
  KSpace vectors: actual max1d max3d = 257 5 665
                  kxmax kymax kzmax  = 5 5 5
Generated 1 of 1 mixed pair_coeff terms from geometric mixing rule
Last active /omp style is kspace_style ewald/omp
Neighbor list info ...
  update: every = 1 steps, delay = 0 steps, check = yes
  max neighbors/atom: 2000, page size: 100000
  master list distance cutoff = 14
  ghost atom cutoff = 14
  binsize = 7, bins = 4 4 4
  1 neighbor lists, perpetual/occasional/extra = 1 0 0
  (1) pair lj/cut/coul/long/omp, perpetual
      attributes: half, newton on, omp
      pair build: half/bin/newton/omp
      stencil: half/bin/3d
      bin: standard
Per MPI rank memory allocation (min/avg/max) = 26.82 | 26.82 | 26.82 Mbytes
   Step          Temp          E_pair         E_mol          TotEng         Press     
         0   0             -24.115729      0             -24.115729     -139.61173    
      1000   270.80748     -28.024535      0              38.437043      69.359993    
      2000   302.41636     -29.459348      0              44.759684      89.86941     
Loop time of 0.582093 on 8 procs for 2000 steps with 150 atoms

Performance: 296.860 ns/day, 0.081 hours/ns, 3435.876 timesteps/s, 515.381 katom-step/s
801.4% CPU use with 1 MPI tasks x 8 OpenMP threads

MPI task timing breakdown:
Section |  min time  |  avg time  |  max time  |%varavg| %total
---------------------------------------------------------------
Pair    | 0.045909   | 0.045909   | 0.045909   |   0.0 |  7.89
Bond    | 0.019806   | 0.019806   | 0.019806   |   0.0 |  3.40
Kspace  | 0.36111    | 0.36111    | 0.36111    |   0.0 | 62.04
Neigh   | 0.0023644  | 0.0023644  | 0.0023644  |   0.0 |  0.41
Comm    | 0.017887   | 0.017887   | 0.017887   |   0.0 |  3.07
Output  | 3.6831e-05 | 3.6831e-05 | 3.6831e-05 |   0.0 |  0.01
Modify  | 0.13368    | 0.13368    | 0.13368    |   0.0 | 22.97
Other   |            | 0.001296   |            |       |  0.22

Nlocal:            150 ave         150 max         150 min
Histogram: 1 0 0 0 0 0 0 0 0 0
Nghost:           1372 ave        1372 max        1372 min
Histogram: 1 0 0 0 0 0 0 0 0 0
Neighs:           8049 ave        8049 max        8049 min
Histogram: 1 0 0 0 0 0 0 0 0 0

Total # of neighbors = 8049
Ave neighs/atom = 53.66
Ave special neighs/atom = 2
Neighbor list builds = 20
Dangerous builds = 0

fix fgcmc CO2 gcmc 100 ${Nattempt} 0 0 25899 300 ${mu_kcal_mol} 0.1     mol CO2mol tfac_insert ${tfac} full_energy rigid mynvt
fix fgcmc CO2 gcmc 100 100 0 0 25899 300 ${mu_kcal_mol} 0.1     mol CO2mol tfac_insert ${tfac} full_energy rigid mynvt
fix fgcmc CO2 gcmc 100 100 0 0 25899 300 -6.35905312 0.1     mol CO2mol tfac_insert ${tfac} full_energy rigid mynvt
fix fgcmc CO2 gcmc 100 100 0 0 25899 300 -6.35905312 0.1     mol CO2mol tfac_insert 1.66666666666667 full_energy rigid mynvt

variable carbon atom "type==2"
group carbon dynamic all var carbon
dynamic group carbon defined
variable nC equal count(carbon)
fix myat1 all ave/time 10 10 1000 v_nC file number_CO2.dat
variable density equal v_nC*(2*15.9994+12.011)/vol/6.022e23*(1e8)^3
fix myat2 all ave/time 10 10 1000 v_density file density_CO2.dat
compute press all pressure thermo_temp
fix myat3 all ave/time 10 100 1000 c_press file pressure_CO2.dat
thermo_style custom step temp etotal v_nC

run ${Nstep}
run 2500000
Ewald initialization ...
  using 12-bit tables for long-range coulomb (src/kspace.cpp:342)
  G vector (1/distance) = 0.21801154
  estimated absolute RMS force accuracy = 0.0034006373
  estimated relative force accuracy = 1.0240918e-05
  KSpace vectors: actual max1d max3d = 257 5 665
                  kxmax kymax kzmax  = 5 5 5
Generated 1 of 1 mixed pair_coeff terms from geometric mixing rule
Last active /omp style is kspace_style ewald/omp
0 atoms in group FixGCMC:gcmc_exclusion_group:fgcmc
0 atoms in group FixGCMC:rotation_gas_atoms:fgcmc
WARNING: Neighbor exclusions used with KSpace solver may give inconsistent Coulombic energies (src/neighbor.cpp:658)
Per MPI rank memory allocation (min/avg/max) = 26.82 | 26.82 | 26.82 Mbytes
   Step          Temp          TotEng          v_nC     
      2000   302.41636      44.759684      50           
      3000   354.75713     -141.29297      134          
      4000   325.51484     -303.11742      161          
      5000   317.23864     -436.32347      180          
      6000   300.1724      -573.3432       200          
      7000   313.94824     -684.15846      219          
      8000   308.22818     -804.04272      236          
      9000   268.42475     -855.59551      240          
     10000   316.68036     -910.03062      249          
     11000   307.50206     -968.74042      256          
     12000   257.65854     -1039.7503      263          
     13000   311.43044     -1051.7668      267          
     14000   304.80527     -1092.3737      270          
     15000   332.09679     -1103.8569      273          
     16000   303.74059     -1136.7393      274          
     17000   324.73884     -1153.1536      278          
     18000   276.67371     -1188.0441      281          
     19000   314.42744     -1172.1555      281          
     20000   332.6192      -1197.1032      285          
     21000   288.36044     -1221.8092      285          
     22000   252.89353     -1248.4066      287          
     23000   278.19586     -1255.7257      289          
     24000   285.62727     -1260.9429      290          
     25000   329.69413     -1255.4568      291          
     26000   295.38369     -1275.6319      291          
     27000   316.80527     -1271.7295      292          
     28000   279.51484     -1287.5801      292          
     29000   345.70867     -1257.9932      292          
     30000   282.93884     -1297.5246      293          
     31000   305.59967     -1288.918       294          
     32000   324.50505     -1291.6708      294          
     33000   295.85579     -1300.2736      294          
     34000   335.7363      -1269.9729      294          
     35000   295.44884     -1290.8083      294          
     36000   358.19723     -1271.6256      294          
     37000   258.25303     -1312.8893      294          
     38000   271.97319     -1300.7476      294          
     39000   329.22347     -1283.6357      294          
     40000   315.82585     -1299.4213      294          
     41000   344.66834     -1277.3689      294          
     42000   305.9216      -1296.6226      294          
     43000   285.35268     -1297.4562      294          
     44000   343.5097      -1276.3607      294          
     45000   328.02772     -1297.88        295          
     46000   348.42372     -1305.3608      296          
     47000   277.33308     -1325.3638      296          
     48000   330.26955     -1308.7751      296          
     49000   260.23007     -1328.4658      296          
     50000   311.29022     -1308.8025      296          
     51000   325.52333     -1315.8268      297          
     52000   341.68326     -1316.5429      297          
     53000   303.52033     -1314.25        297          
     54000   327.46382     -1317.0821      297          
     55000   299.52497     -1330.8308      297          
     56000   295.88227     -1323.2011      297          
     57000   320.43249     -1319.2206      297          
     58000   315.82574     -1317.1803      297          
     59000   273.03941     -1335.8746      297          
     60000   329.57886     -1317.1192      298          
     61000   332.7834      -1320.9564      298          
     62000   275.17498     -1355.6733      298          
     63000   306.55894     -1322.7669      298          
     64000   297.79493     -1339.26        298          
     65000   267.86353     -1337.4635      298          
     66000   311.67778     -1336.1834      298          
     67000   290.85522     -1340.0957      298          
     68000   285.51871     -1338.7182      298          
     69000   318.75709     -1332.0713      298          
     70000   315.43691     -1336.4096      298          
     71000   314.38495     -1331.973       298          
     72000   276.73022     -1342.0643      298          
     73000   283.16345     -1338.5783      298          
     74000   327.99969     -1319.1221      298          
     75000   296.56445     -1339.6179      298          
     76000   325.78905     -1322.7888      298          
     77000   329.43244     -1322.5441      298          
     78000   314.27773     -1324.7554      298          
     79000   308.19706     -1335.8497      298          
     80000   319.54449     -1326.2266      298          
     81000   272.73057     -1348.1468      298          
     82000   305.27752     -1337.9683      298          
     83000   280.43564     -1339.7273      298          
     84000   333.43838     -1326.8064      298          
     85000   265.38699     -1349.8095      298          
     86000   320.31503     -1333.5339      299          
     87000   323.24929     -1341.2337      299          
     88000   276.5482      -1355.6254      299          
     89000   338.02953     -1319.2249      299          
     90000   298.43786     -1354.0022      299          
     91000   305.85397     -1349.4496      299          
     92000   309.25736     -1339.4957      299          
     93000   324.2468      -1339.3697      299          
     94000   283.19516     -1352.0333      299          
     95000   290.70071     -1340.4296      299          
     96000   334.69806     -1330.6168      299          
     97000   300.41537     -1346.4243      299          
     98000   328.98008     -1340.1561      299          
     99000   271.74377     -1353.3795      299          
    100000   297.77052     -1346.9724      299          
    101000   341.87003     -1327.9546      299          
    102000   335.97829     -1331.0505      299          
    103000   287.66576     -1348.3473      299          
    104000   280.2839      -1346.8254      299          
    105000   326.34226     -1334.2673      299          
    106000   289.22582     -1356.6909      299          
    107000   296.83219     -1337.6272      299          
    108000   301.3613      -1349.411       299          
    109000   309.18564     -1336.0597      299          
    110000   307.01777     -1354.5609      299          
    111000   282.45008     -1350.8311      299          
    112000   288.79462     -1341.487       299          
    113000   279.99759     -1350.6229      299          
    114000   326.52339     -1324.0213      299          
    115000   331.44565     -1326.068       299          
    116000   312.53791     -1343.943       299          
    117000   308.4737      -1340.9569      299          
    118000   306.87265     -1337.6734      299          
    119000   341.34468     -1329.7745      299          
    120000   295.71967     -1354.5228      299          
    121000   274.04993     -1357.9486      299          
    122000   302.33948     -1361.007       300          
    123000   304.83766     -1351.959       300          
    124000   313.44257     -1342.9001      300          
    125000   288.31934     -1354.3854      300          
    126000   317.90025     -1340.9554      300          
    127000   285.03675     -1356.4962      300          
    128000   307.88887     -1350.4741      300          
    129000   276.30336     -1369.0851      300          
    130000   328.84859     -1344.4483      300          
    131000   329.80967     -1357.5373      300          
    132000   316.01994     -1360.9635      300          
    133000   289.71405     -1356.8797      300          
    134000   320.33207     -1349.2968      300          
    135000   339.51508     -1336.1683      300          
    136000   295.5082      -1354.7335      300          
    137000   328.75904     -1354.984       300          
    138000   289.64621     -1350.5447      300          
    139000   331.53168     -1344.7187      300          
    140000   375.33775     -1326.731       300          
    141000   311.6268      -1350.2678      300          
    142000   285.93221     -1369.258       300          
    143000   259.64015     -1371.9796      300          
    144000   332.40973     -1350.898       301          
    145000   318.83964     -1360.1601      301          
    146000   293.76127     -1371.9737      301          
    147000   351.94082     -1343.4793      301          
    148000   318.50453     -1365.1192      301          
    149000   256.69936     -1384.0311      301          
    150000   346.02716     -1345.0874      301          
    151000   300.17959     -1365.2226      301          
    152000   294.33882     -1374.9105      301          
    153000   334.42808     -1351.2892      301          
    154000   336.9153      -1356.6853      301          
    155000   296.74292     -1362.4585      301          
    156000   326.03133     -1359.4606      301          
    157000   342.85294     -1347.1618      301          
    158000   306.2642      -1363.8906      301          
    159000   273.63967     -1381.9462      301          
    160000   307.79846     -1364.1705      301          
    161000   298.92204     -1371.539       301          
    162000   344.02604     -1345.0139      301          
    163000   291.84657     -1370.5878      301          
    164000   259.87112     -1382.8442      301          
    165000   333.73561     -1353.6722      301          
    166000   292.95731     -1372.1598      301          
    167000   326.43964     -1356.8812      301          
    168000   310.1281      -1358.9343      301          
    169000   366.18663     -1343.7116      301          
    170000   278.68591     -1379.7359      301          
    171000   259.09468     -1378.0579      301          
    172000   315.1129      -1353.9125      301          
    173000   297.62745     -1368.5689      301          
    174000   233.6838      -1390.5112      301          
    175000   270.55816     -1372.8849      301          
    176000   319.43982     -1352.2179      301          
    177000   294.36217     -1368.3262      301          
    178000   327.02919     -1350.5435      301          
    179000   280.13751     -1371.8159      301          
    180000   278.49522     -1372.9698      301          
    181000   313.37412     -1351.5321      301          
    182000   332.93404     -1356.1023      301          
    183000   270.12534     -1385.5835      301          
    184000   315.64568     -1365.126       301          
    185000   331.22342     -1357.3865      301          
    186000   305.5818      -1383.7456      302          
    187000   289.95378     -1375.8037      302          
    188000   309.20993     -1362.1678      302          
    189000   339.80877     -1363.3226      302          
    190000   276.69783     -1386.267       302          
    191000   291.18619     -1370.404       302          
    192000   332.71727     -1358.9824      302          
    193000   263.82157     -1395.2054      302          
    194000   331.21761     -1364.2443      302          
    195000   311.22415     -1374.656       302          
    196000   331.76026     -1361.694       302          
    197000   283.09099     -1385.5096      302          
    198000   322.32882     -1367.7665      302          
    199000   295.56947     -1380.6119      302          
    200000   300.59882     -1377.24        302          
    201000   297.43647     -1367.458       302          
    202000   308.04057     -1379.4303      302          
    203000   280.28485     -1379.2137      302          
    204000   328.29623     -1357.5681      302          
    205000   300.41989     -1371.3484      302          
    206000   327.90483     -1366.4662      302          
    207000   278.16881     -1381.4978      302          
    208000   297.18407     -1370.8732      302          
    209000   286.5408      -1379.4438      302          
    210000   313.12197     -1360.04        302          
    211000   321.19483     -1363.506       302          
    212000   246.25284     -1394.5858      302          
    213000   332.6401      -1357.9754      302          
    214000   266.08138     -1388.65        302          
    215000   286.70182     -1375.7045      302          
    216000   323.17935     -1372.1262      302          
    217000   283.96208     -1380.1568      302          
    218000   301.16919     -1367.4013      302          
    219000   326.67036     -1370.457       302          
    220000   257.54921     -1394.4765      302          
    221000   299.48765     -1375.0112      302          
    222000   321.16315     -1364.8336      302          
    223000   280.07945     -1387.1056      302          
    224000   304.39825     -1382.0254      302          
    225000   278.03568     -1379.4538      302          
    226000   312.87341     -1365.3317      302          
    227000   258.92817     -1393.0699      302          
    228000   279.97785     -1387.2143      302          
    229000   295.28917     -1376.6683      302          
    230000   295.79934     -1380.1302      302          
    231000   301.5956      -1374.5521      302          
    232000   325.53861     -1361.2146      302          
    233000   274.50107     -1390.6374      302          
    234000   310.99194     -1368.2241      302          
    235000   312.60176     -1371.5097      302          
    236000   277.14428     -1379.0612      302          
    237000   298.80563     -1373.4081      302          
    238000   345.53117     -1365.9699      302          
    239000   296.74395     -1376.9208      302          
    240000   281.28949     -1379.9345      302          
    241000   319.39219     -1367.703       302          
    242000   327.95193     -1366.1842      302          
    243000   295.55779     -1379.5497      302          
    244000   337.35724     -1360.8936      302          
    245000   313.74111     -1377.9084      302          
    246000   294.38786     -1375.7762      302          
    247000   331.05444     -1373.0253      302          
    248000   277.93913     -1385.5665      302          
    249000   311.18896     -1371.8811      302          
    250000   301.39451     -1372.2586      302          
    251000   273.34964     -1387.366       302          
    252000   323.31401     -1369.8362      302          
    253000   280.77427     -1386.8484      302          
    254000   302.13634     -1368.966       302          
    255000   266.42517     -1387.0361      302          
    256000   321.20428     -1359.0941      302          
    257000   328.36705     -1364.209       302          
    258000   319.91782     -1371.8624      302          
    259000   278.95657     -1389.052       302          
    260000   288.21686     -1373.1607      302          
    261000   305.09305     -1373.8143      302          
    262000   316.13722     -1370.8612      302          
    263000   309.49071     -1379.2283      302          
    264000   341.52633     -1357.0425      302          
    265000   307.22621     -1378.501       302          
    266000   297.94257     -1376.0347      302          
    267000   306.31213     -1373.3622      302          
    268000   299.52677     -1382.2379      302          
    269000   329.27361     -1364.097       302          
    270000   324.59281     -1364.0826      302          
    271000   286.41084     -1377.3622      302          
    272000   313.27734     -1372.5314      302          
    273000   312.19473     -1373.5333      302          
    274000   385.50995     -1354.9048      302          
    275000   301.99416     -1373.5922      302          
    276000   326.87206     -1375.5152      302          
    277000   278.67722     -1392.6505      302          
    278000   336.41254     -1361.7363      302          
    279000   277.42537     -1390.2061      302          
    280000   284.15598     -1380.5557      302          
    281000   297.0374      -1377.5083      302          
    282000   326.1591      -1359.1455      302          
    283000   307.05163     -1377.5902      302          
    284000   287.66241     -1383.9878      302          
    285000   297.1298      -1382.9749      302          
    286000   280.23959     -1386.8436      302          
    287000   335.62959     -1363.9991      302          
    288000   330.52756     -1366.2634      302          
    289000   275.61802     -1390.0714      302          
    290000   301.56962     -1381.3354      302          
    291000   257.5962      -1395.5994      302          
    292000   330.60869     -1370.1896      302          
    293000   286.14153     -1385.7941      302          
    294000   278.16822     -1385.357       302          
    295000   266.72881     -1392.6419      302          
    296000   307.19501     -1370.0946      302          
    297000   290.94266     -1388.8863      302          
    298000   294.48654     -1383.1568      302          
    299000   271.31179     -1391.5384      302          
    300000   335.43594     -1355.9391      302          
    301000   310.20404     -1383.0812      302          
    302000   302.63817     -1377.6905      302          
    303000   295.50869     -1378.8937      302          
    304000   332.33911     -1370.191       302          
    305000   275.22407     -1387.3733      302          
    306000   283.48285     -1378.3672      302          
    307000   286.96863     -1383.4195      302          
    308000   284.3098      -1375.7721      302          
    309000   299.47057     -1378.5945      302          
    310000   301.68636     -1386.6932      302          
    311000   317.88329     -1365.1941      302          
    312000   282.27373     -1387.8995      302          
    313000   317.14647     -1371.4942      302          
    314000   340.5319      -1367.4862      302          
    315000   319.06023     -1383.0829      302          
    316000   269.64067     -1393.7266      302          
    317000   285.19176     -1378.8284      302          
    318000   319.25895     -1371.5705      302          
    319000   351.60272     -1377.0405      302          
    320000   268.99161     -1396.3132      302          
    321000   267.88212     -1393.2481      302          
    322000   292.48297     -1383.7818      302          
    323000   308.37698     -1373.4573      302          
    324000   383.35896     -1343.0208      302          
    325000   296.96205     -1391.5932      302          
    326000   317.07525     -1362.4539      302          
    327000   288.39198     -1387.3163      302          
    328000   266.71942     -1388.5325      302          
    329000   310.89036     -1377.7297      302          
    330000   321.32623     -1377.4815      302          
    331000   303.21056     -1375.3793      302          
    332000   306.43276     -1380.0323      302          
    333000   275.33612     -1391.6548      302          
    334000   317.99185     -1369.0732      302          
    335000   335.89416     -1371.7031      302          
    336000   305.3486      -1378.338       302          
    337000   323.61946     -1370.1405      302          
    338000   286.76322     -1388.1092      302          
    339000   339.27472     -1365.8658      302          
    340000   295.60467     -1378.6277      302          
    341000   305.70049     -1377.8796      302          
    342000   334.24518     -1363.3199      302          
    343000   286.91461     -1383.8856      302          
    344000   273.84021     -1383.5376      302          
    345000   292.71727     -1376.9507      302          
    346000   321.09339     -1374.381       302          
    347000   318.47863     -1380.9484      302          
    348000   307.22508     -1384.5762      302          
    349000   349.40566     -1361.1478      302          
    350000   328.49211     -1376.5403      302          
    351000   263.03123     -1394.0462      302          
    352000   326.58254     -1365.4723      302          
    353000   299.71853     -1390.0646      302          
    354000   320.90071     -1373.8814      302          
    355000   315.02593     -1371.6865      302          
    356000   278.97961     -1391.855       302          
    357000   283.29426     -1377.626       302          
    358000   300.99474     -1382.7764      302          
    359000   330.18667     -1364.1503      302          
    360000   285.34659     -1389.3243      302          
    361000   302.11808     -1369.7302      302          
    362000   303.21487     -1388.3471      302          
    363000   279.18847     -1379.6438      302          
    364000   294.37663     -1387.6299      302          
    365000   296.8052      -1388.0019      302          
    366000   283.06565     -1388.1038      302          
    367000   315.77666     -1372.2245      302          
    368000   291.60221     -1390.217       302          
    369000   286.18228     -1382.0502      302          
    370000   346.88881     -1364.8387      302          
    371000   280.13335     -1392.2378      302          
    372000   282.85495     -1382.8385      302          
    373000   282.7547      -1390.2199      302          
    374000   298.5857      -1383.4927      302          
    375000   341.66591     -1367.2924      302          
    376000   298.71237     -1388.3928      302          
    377000   322.56878     -1363.4311      302          
    378000   290.31563     -1388.3721      302          
    379000   286.76704     -1382.7923      302          
    380000   278.66234     -1381.5997      302          
    381000   335.97647     -1359.5815      302          
    382000   371.10435     -1357.6515      302          
    383000   332.22856     -1374.3124      302          
    384000   293.41941     -1381.1438      302          
    385000   270.52956     -1391.867       302          
    386000   326.1299      -1358.5383      302          
    387000   281.24186     -1387.2311      302          
    388000   286.00922     -1380.6186      302          
    389000   298.86406     -1387.5918      302          
    390000   324.25018     -1372.2131      302          
    391000   264.80069     -1389.8898      302          
    392000   317.42099     -1363.2462      302          
    393000   344.86558     -1371.7254      302          
    394000   278.74815     -1383.5843      302          
    395000   314.04893     -1372.3043      302          
    396000   294.62249     -1387.7823      302          
    397000   311.21459     -1364.8948      302          
    398000   290.16102     -1386.3948      302          
    399000   304.01484     -1374.5049      302          
    400000   319.96531     -1376.5371      302          
    401000   295.26711     -1377.5761      302          
    402000   313.94047     -1378.9397      302          
    403000   295.07412     -1382.6185      302          
    404000   291.02674     -1377.7347      302          
    405000   331.64305     -1363.789       302          
    406000   292.67749     -1386.1451      302          
    407000   291.75278     -1383.0123      302          
    408000   299.02002     -1380.6135      302          
    409000   298.41315     -1381.315       302          
    410000   334.13189     -1375.5137      302          
    411000   323.69336     -1370.2536      302          
    412000   287.28197     -1394.4023      302          
    413000   325.82305     -1375.3845      302          
    414000   299.35095     -1381.5453      302          
    415000   289.24284     -1382.1074      302          
    416000   280.21873     -1390.0848      302          
    417000   286.86111     -1396.1449      302          
    418000   275.28527     -1381.4229      302          
    419000   323.16833     -1367.7162      302          
    420000   284.44117     -1384.1831      302          
    421000   316.73754     -1371.0034      302          
    422000   275.17749     -1392.1372      302          
    423000   307.83523     -1385.3021      302          
    424000   318.92662     -1366.5732      302          
    425000   287.01603     -1388.6735      302          
    426000   299.60555     -1388.577       302          
    427000   309.0728      -1355.2545      302          
    428000   279.65408     -1387.4484      302          
    429000   293.02833     -1380.7255      302          
    430000   315.37018     -1378.7182      302          
    431000   273.58573     -1378.8571      302          
    432000   292.07545     -1387.689       302          
    433000   298.91629     -1380.148       302          
    434000   321.90888     -1375.6103      302          
    435000   335.70472     -1365.7763      302          
    436000   293.50428     -1382.5788      302          
    437000   290.11786     -1391.86        302          
    438000   327.80461     -1375.8326      302          
    439000   304.04624     -1377.2418      302          
    440000   283.04193     -1392.6129      302          
    441000   303.26122     -1377.2705      302          
    442000   310.48738     -1366.3088      302          
    443000   295.56359     -1390.9516      302          
    444000   291.7244      -1383.6043      302          
    445000   308.26204     -1383.7318      302          
    446000   281.44252     -1394.9851      302          
    447000   330.34295     -1370.8969      302          
    448000   288.33796     -1388.7946      302          
    449000   350.38219     -1356.3671      302          
    450000   321.43562     -1382.613       302          
    451000   305.81835     -1366.9074      302          
    452000   292.2169      -1383.4079      302          
    453000   291.29113     -1383.2919      302          
    454000   287.83216     -1384.3343      302          
    455000   305.89142     -1371.8147      302          
    456000   363.08338     -1374.1978      302          
    457000   298.25537     -1386.7622      302          
    458000   311.52244     -1373.5653      302          
    459000   305.83472     -1381.1419      302          
    460000   334.19241     -1369.859       302          
    461000   315.56254     -1373.2932      302          
    462000   279.10997     -1384.1591      302          
    463000   292.27772     -1386.2973      302          
    464000   296.18727     -1387.5793      302          
    465000   303.06051     -1376.9066      302          
    466000   283.5763      -1381.1692      302          
    467000   318.72905     -1363.8319      302          
    468000   286.22068     -1384.8661      302          
    469000   279.86585     -1388.5559      302          
    470000   274.69415     -1385.8864      302          
    471000   320.48595     -1367.3077      302          
    472000   274.34673     -1397.7817      302          
    473000   327.1132      -1367.2006      302          
    474000   296.41783     -1387.6271      302          
    475000   282.62015     -1392.265       302          
    476000   318.00703     -1372.444       302          
    477000   321.00061     -1371.8269      302          
    478000   302.4422      -1380.1304      302          
    479000   303.20663     -1382.4766      302          
    480000   306.75579     -1385.3577      302          
    481000   274.81626     -1397.7239      302          
    482000   334.02229     -1367.3896      302          
    483000   315.00656     -1385.931       302          
    484000   300.62615     -1387.1623      302          
    485000   341.73977     -1367.8898      302          
    486000   283.60604     -1393.0285      302          
    487000   296.56443     -1381.4799      302          
    488000   301.21808     -1386.6494      302          
    489000   308.82774     -1377.4804      302          
    490000   307.33966     -1383.0195      302          
    491000   315.00544     -1380.2931      302          
    492000   280.90318     -1394.9669      302          
    493000   285.19415     -1397.7283      302          
    494000   317.03902     -1379.1292      302          
    495000   276.93182     -1398.0722      302          
    496000   294.7251      -1387.9083      302          
    497000   332.37934     -1366.3565      302          
    498000   366.31753     -1363.6647      302          
    499000   316.27376     -1383.3725      302          
    500000   311.6092      -1380.5704      302          
    501000   328.37807     -1371.6655      302          
    502000   296.78575     -1390.2042      302          
    503000   277.90346     -1389.7976      302          
    504000   309.23163     -1376.3631      302          
    505000   268.19916     -1395.0018      302          
    506000   299.1311      -1381.2037      302          
    507000   294.36162     -1381.7527      302          
    508000   314.68373     -1373.5444      302          
    509000   293.3765      -1392.6209      302          
    510000   336.21034     -1369.9838      302          
    511000   328.54164     -1380.541       302          
    512000   267.7418      -1387.3975      302          
    513000   348.94723     -1362.3398      302          
    514000   294.30761     -1387.4279      302          
    515000   374.01101     -1359.0011      302          
    516000   307.81878     -1385.6523      302          
    517000   291.66553     -1385.8945      302          
    518000   326.51669     -1372.2774      302          
    519000   283.24786     -1389.1931      302          
    520000   260.23373     -1391.4361      302          
    521000   287.7661      -1390.0382      302          
    522000   350.39912     -1363.4784      302          
    523000   287.25562     -1386.0357      302          
    524000   317.70811     -1368.0318      302          
    525000   309.5816      -1383.7304      302          
    526000   310.15472     -1379.3609      302          
    527000   303.31888     -1380.6881      302          
    528000   311.41105     -1379.1291      302          
    529000   340.81594     -1371.8952      302          
    530000   300.10295     -1391.2273      302          
    531000   291.68411     -1382.144       302          
    532000   284.92166     -1389.7709      302          
    533000   339.12517     -1366.541       302          
    534000   321.62829     -1379.5802      302          
    535000   282.93795     -1389.3392      302          
    536000   359.59337     -1362.2479      302          
    537000   305.58581     -1377.5675      302          
    538000   318.43788     -1375.9095      302          
    539000   314.54615     -1381.049       302          
    540000   307.23931     -1380.5193      302          
    541000   283.39398     -1392.2349      302          
    542000   354.65398     -1365.3016      302          
    543000   297.69521     -1384.3692      302          
    544000   282.60385     -1385.8316      302          
    545000   302.02736     -1371.6064      302          
    546000   280.54975     -1394.5601      302          
    547000   332.49626     -1366.5042      302          
    548000   271.57197     -1398.6654      302          
    549000   302.19706     -1372.017       302          
    550000   294.17231     -1386.7422      302          
    551000   297.84037     -1386.2127      302          
    552000   320.27314     -1371.9885      302          
    553000   273.75263     -1391.9874      302          
    554000   289.7102      -1389.1922      302          
    555000   310.2534      -1369.0582      302          
    556000   366.01325     -1366.7059      302          
    557000   297.96419     -1390.1959      302          
    558000   303.2101      -1388.3941      302          
    559000   285.43204     -1384.5431      302          
    560000   346.99098     -1365.1308      302          
    561000   304.09735     -1383.9383      302          
    562000   349.1045      -1355.2833      302          
    563000   296.32445     -1382.917       302          
    564000   310.64812     -1373.667       302          
    565000   280.7395      -1394.1292      302          
    566000   267.91937     -1396.1707      302          
    567000   276.41434     -1391.2152      302          
    568000   307.83199     -1379.6641      302          
    569000   336.10334     -1370.8267      302          
    570000   326.30213     -1375.6089      302          
    571000   299.24201     -1380.7497      302          
    572000   280.58852     -1394.0291      302          
    573000   326.55119     -1365.5196      302          
    574000   278.45395     -1390.2991      302          
    575000   335.76717     -1365.6853      302          
    576000   305.57761     -1377.8709      302          
    577000   309.83111     -1381.5087      302          
    578000   287.91387     -1387.281       302          
    579000   320.06356     -1383.5385      302          
    580000   315.09481     -1376.2874      302          
    581000   326.54291     -1369.3292      302          
    582000   271.05998     -1397.5562      302          
    583000   299.16131     -1374.7247      302          
    584000   291.32443     -1396.1732      302          
    585000   314.40041     -1375.9708      302          
    586000   279.573       -1395.3347      302          
    587000   314.84554     -1374.2339      302          
    588000   291.59719     -1389.7386      302          
    589000   300.60967     -1371.5436      302          
    590000   278.71292     -1396.1077      302          
    591000   288.50339     -1386.919       302          
    592000   319.5103      -1382.7454      303          
    593000   269.30505     -1399.9491      303          
    594000   309.54421     -1385.3806      303          
    595000   304.2081      -1392.4196      303          
    596000   300.17301     -1389.7979      303          
    597000   307.8808      -1387.5121      303          
    598000   288.87743     -1393.2021      303          
    599000   301.83115     -1385.9526      303          
    600000   294.43465     -1389.6143      303          
    601000   298.99934     -1390.3335      303          
    602000   351.08908     -1376.045       303          
    603000   298.71298     -1399.0027      303          
    604000   302.08747     -1391.5642      303          
    605000   324.27221     -1384.4679      303          
    606000   260.84665     -1415.0133      303          
    607000   358.85948     -1362.2408      303          
    608000   288.20445     -1399.1237      303          
    609000   282.05597     -1397.502       303          
    610000   337.5901      -1380.3744      303          
    611000   291.19075     -1400.0753      303          
    612000   308.88683     -1390.8651      303          
    613000   290.65566     -1394.2154      303          
    614000   307.38552     -1393.0093      303          
    615000   264.90445     -1407.7484      303          
    616000   297.99178     -1385.4329      303          
    617000   292.03491     -1398.459       303          
    618000   283.94468     -1399.4404      303          
    619000   324.83146     -1388.3945      303          
    620000   275.42082     -1402.861       303          
    621000   282.05216     -1400.4277      303          
    622000   323.73385     -1380.4669      303          
    623000   306.55249     -1393.3252      303          
    624000   314.17162     -1384.7832      303          
    625000   299.88972     -1392.1942      303          
    626000   322.85853     -1390.724       303          
    627000   269.49576     -1401.3451      303          
    628000   270.55544     -1403.2755      303          
    629000   273.08356     -1402.7539      303          
    630000   317.69482     -1380.7174      303          
    631000   351.93437     -1369.2043      303          
    632000   287.89783     -1404.6407      303          
    633000   281.96044     -1397.9787      303          
    634000   293.1018      -1398.5645      303          
    635000   315.14422     -1390.3314      303          
    636000   284.95318     -1403.1443      303          
    637000   284.37257     -1409.5964      303          
    638000   323.82009     -1383.1441      303          
    639000   278.72315     -1403.0602      303          
    640000   292.55584     -1392.7299      303          
    641000   348.84954     -1382.5493      303          
    642000   348.89428     -1383.5978      303          
    643000   301.10804     -1395.1573      303          
    644000   327.51755     -1384.7151      303          
    645000   267.68328     -1406.4556      303          
    646000   287.75368     -1392.5938      303          
    647000   336.09898     -1378.4956      303          
    648000   282.93641     -1398.5271      303          
    649000   330.48792     -1379.8072      303          
    650000   303.12339     -1391.7661      303          
    651000   287.62903     -1393.6107      303          
    652000   315.52731     -1384.4901      303          
    653000   317.69471     -1389.5471      303          
    654000   275.49761     -1405.446       303          
    655000   342.87507     -1372.0624      303          
    656000   334.80088     -1380.4461      303          
    657000   318.35015     -1387.6675      303          
    658000   283.3308      -1396.1735      303          
    659000   297.50465     -1393.4296      303          
    660000   308.71386     -1396.3951      303          
    661000   324.21333     -1386.6213      303          
    662000   271.10328     -1407.0695      303          
    663000   306.16841     -1378.4927      303          
    664000   326.60658     -1378.9926      303          
    665000   280.83399     -1399.8299      303          
    666000   302.56295     -1391.8244      303          
    667000   299.32296     -1391.0303      303          
    668000   352.25565     -1383.2768      303          
    669000   300.37093     -1395.949       303          
    670000   303.13982     -1383.7344      303          
    671000   271.81882     -1391.9609      303          
    672000   305.78222     -1382.4481      303          
    673000   350.32364     -1381.1865      303          
    674000   305.49745     -1390.5516      303          
    675000   315.8751      -1385.3158      303          
    676000   291.73519     -1400.857       303          
    677000   295.51386     -1398.4696      303          
    678000   297.12545     -1392.8062      303          
    679000   303.54053     -1385.053       303          
    680000   322.30899     -1387.4305      303          
    681000   293.49524     -1391.0205      303          
    682000   316.58946     -1386.166       303          
    683000   297.06739     -1399.9862      303          
    684000   331.59546     -1375.728       303          
    685000   287.6587      -1402.9797      303          
    686000   283.45677     -1389.7346      303          
    687000   318.69945     -1376.0558      303          
    688000   268.90874     -1400.8696      303          
    689000   354.89708     -1372.4946      303          
    690000   300.501       -1397.9131      303          
    691000   295.57575     -1398.4597      303          
    692000   344.06415     -1369.8656      303          
    693000   310.71062     -1393.8333      303          
    694000   324.76027     -1383.3575      303          
    695000   317.99099     -1387.0505      303          
    696000   298.81761     -1400.0401      303          
    697000   318.15308     -1381.1123      303          
    698000   324.45888     -1377.9396      303          
    699000   312.15401     -1398.4637      303          
    700000   280.48597     -1402.1621      303          
    701000   316.73117     -1373.3486      303          
    702000   320.94917     -1387.1323      303          
    703000   290.79927     -1389.7485      303          
    704000   324.72394     -1377.1615      303          
    705000   321.90062     -1392.8983      303          
    706000   283.9498      -1401.4768      303          
    707000   317.50094     -1386.6554      303          
    708000   340.03835     -1380.0897      303          
    709000   313.90813     -1388.6272      303          
    710000   296.83662     -1392.3396      303          
    711000   318.8759      -1385.5295      303          
    712000   312.3324      -1386.8397      303          
    713000   346.31225     -1372.5748      303          
    714000   283.56637     -1397.404       303          
    715000   322.20107     -1379.6524      303          
    716000   332.47746     -1384.9113      303          
    717000   327.7666      -1375.0665      303          
    718000   282.32732     -1392.0929      303          
    719000   321.66645     -1380.2823      303          
    720000   307.27457     -1391.9415      303          
    721000   283.32258     -1395.603       303          
    722000   332.77926     -1375.8571      303          
    723000   266.36355     -1409.663       303          
    724000   296.15154     -1394.9424      303          
    725000   278.57842     -1392.9837      303          
    726000   345.55369     -1366.419       303          
    727000   310.30783     -1385.5635      303          
    728000   340.83951     -1380.7911      303          
    729000   277.65434     -1400.5085      303          
    730000   298.31834     -1384.4388      303          
    731000   319.0472      -1396.0369      303          
    732000   293.06733     -1391.1048      303          
    733000   316.37415     -1383.3983      303          
    734000   304.37093     -1395.6887      303          
    735000   328.92278     -1375.236       303          
    736000   316.16366     -1396.211       303          
    737000   343.64393     -1381.8989      303          
    738000   287.51602     -1388.5491      303          
    739000   299.40755     -1391.7724      303          
    740000   304.80062     -1387.6792      303          
    741000   295.07669     -1395.7359      303          
    742000   308.46672     -1371.4167      303          
    743000   291.49413     -1392.8805      303          
    744000   321.35961     -1388.0597      303          
    745000   287.87064     -1396.5836      303          
    746000   376.41377     -1359.8282      303          
    747000   253.6286      -1412.0797      303          
    748000   277.6122      -1398.0656      303          
    749000   318.94702     -1392.4936      303          
    750000   305.08667     -1390.8901      303          
    751000   333.97746     -1380.6884      303          
    752000   298.72768     -1397.656       303          
    753000   330.88022     -1380.704       303          
    754000   305.51263     -1392.696       303          
    755000   292.91333     -1395.0916      303          
    756000   365.59799     -1369.8143      303          
    757000   303.85775     -1397.6809      303          
    758000   289.79887     -1403.1731      303          
    759000   319.88486     -1374.4483      303          
    760000   286.63912     -1400.9191      303          
    761000   259.85348     -1404.7168      303          
    762000   320.36031     -1380.9528      303          
    763000   311.44295     -1390.8627      303          
    764000   280.03065     -1399.9295      303          
    765000   284.68523     -1395.5002      303          
    766000   288.49032     -1397.0497      303          
    767000   292.66509     -1394.4493      303          
    768000   298.15875     -1390.8578      303          
    769000   276.02024     -1402.6855      303          
    770000   281.97834     -1401.7157      303          
    771000   296.70437     -1387.4324      303          
    772000   298.48477     -1397.2601      303          
    773000   291.16017     -1388.6667      303          
    774000   307.8906      -1398.7564      303          
    775000   278.61964     -1396.6497      303          
    776000   313.05594     -1395.7691      303          
    777000   258.07432     -1403.2028      303          
    778000   291.34977     -1402.5426      303          
    779000   335.61499     -1378.7688      303          
    780000   272.22584     -1403.1684      303          
    781000   303.92015     -1397.4066      303          
    782000   313.76128     -1387.917       303          
    783000   332.65091     -1380.9635      303          
    784000   309.45709     -1384.3087      303          
    785000   290.0724      -1393.5768      303          
    786000   320.0496      -1395.1102      303          
    787000   315.19817     -1389.3796      303          
    788000   270.68484     -1406.5922      303          
    789000   312.94488     -1384.2125      303          
    790000   312.52918     -1390.2806      303          
    791000   272.62644     -1401.4124      303          
    792000   273.7324      -1395.5666      303          
    793000   300.08114     -1387.0029      303          
    794000   291.4131      -1384.9327      303          
    795000   275.72479     -1401.6317      303          
    796000   326.62033     -1376.3465      303          
    797000   280.96046     -1397.6466      303          
    798000   293.4422      -1397.9795      303          
    799000   327.49084     -1378.1778      303          
    800000   335.2696      -1380.8731      303          
    801000   345.75982     -1371.3293      303          
    802000   301.23997     -1393.4535      303          
    803000   286.48558     -1402.7748      303          
    804000   284.29078     -1392.6929      303          
    805000   303.0089      -1383.0089      303          
    806000   332.15938     -1376.045       303          
    807000   301.14273     -1392.8255      303          
    808000   309.92125     -1396.0601      303          
    809000   279.53132     -1399.7768      303          
    810000   274.03439     -1397.9854      303          
    811000   331.86156     -1378.0807      303          
    812000   287.37519     -1390.2593      303          
    813000   286.25092     -1402.0584      303          
    814000   299.71955     -1387.8987      303          
    815000   333.26927     -1374.3278      303          
    816000   292.47621     -1400.4425      303          
    817000   282.92205     -1395.6437      303          
    818000   305.44319     -1391.2891      303          
    819000   306.42018     -1393.2541      303          
    820000   312.4982      -1380.6585      303          
    821000   315.95877     -1398.8691      303          
    822000   270.85126     -1408.1022      303          
    823000   310.28274     -1383.2767      303          
    824000   271.19628     -1409.5786      303          
    825000   323.19133     -1379.9666      303          
    826000   262.47177     -1409.2015      303          
    827000   304.26419     -1388.2495      303          
    828000   327.74153     -1384.6864      303          
    829000   281.76951     -1396.711       303          
    830000   332.00947     -1384.1031      303          
    831000   293.41357     -1395.2333      303          
    832000   315.5036      -1379.2805      303          
    833000   334.31351     -1388.7459      303          
    834000   337.0938      -1384.6596      303          
    835000   346.96228     -1381.8394      303          
    836000   284.65326     -1393.5866      303          
    837000   275.66683     -1407.5757      303          
    838000   318.13919     -1382.9477      303          
    839000   318.13948     -1395.2007      303          
    840000   289.44235     -1401.4743      303          
    841000   299.09467     -1382.1161      303          
    842000   288.10181     -1400.7649      303          
    843000   271.41872     -1400.6585      303          
    844000   321.81394     -1388.4469      303          
    845000   283.90165     -1395.4948      303          
    846000   302.54991     -1385.3373      303          
    847000   318.58705     -1383.2342      303          
    848000   292.46698     -1393.8957      303          
    849000   279.97733     -1400.5869      303          
    850000   287.43926     -1386.6196      303          
    851000   342.19294     -1372.7462      303          
    852000   328.3733      -1388.77        303          
    853000   321.14334     -1386.4724      303          
    854000   280.839       -1401.6511      303          
    855000   304.95067     -1396.8985      303          
    856000   283.43313     -1399.3189      303          
    857000   308.68252     -1382.9566      303          
    858000   288.39287     -1403.8808      303          
    859000   302.63458     -1387.3613      303          
    860000   290.29043     -1395.2631      303          
    861000   316.90243     -1393.8461      303          
    862000   254.18113     -1409.3731      303          
    863000   267.47187     -1401.9231      303          
    864000   306.49129     -1383.8616      303          
    865000   301.0261      -1397.9335      303          
    866000   321.92764     -1387.1666      303          
    867000   305.60096     -1382.9858      303          
    868000   293.95815     -1402.3523      303          
    869000   293.57701     -1391.4363      303          
    870000   320.11578     -1385.1524      303          
    871000   328.46003     -1383.4618      303          
    872000   274.14328     -1401.9442      303          
    873000   347.00436     -1371.7306      303          
    874000   314.39352     -1395.3551      303          
    875000   299.09675     -1396.8356      303          
    876000   287.06359     -1396.6625      303          
    877000   325.2564      -1385.9259      303          
    878000   308.61649     -1389.6416      303          
    879000   295.54792     -1394.1537      303          
    880000   345.50176     -1377.0108      303          
    881000   309.90145     -1385.6932      303          
    882000   322.46992     -1385.7038      303          
    883000   271.26671     -1403.4479      303          
    884000   331.71003     -1374.8134      303          
    885000   316.75683     -1390.3571      303          
    886000   348.28062     -1366.413       303          
    887000   333.16964     -1378.5411      303          
    888000   318.80346     -1388.3543      303          
    889000   342.47303     -1372.7124      303          
    890000   324.90978     -1375.0609      303          
    891000   305.43505     -1390.8861      303          
    892000   315.77105     -1383.5205      303          
    893000   325.0708      -1390.4576      303          
    894000   323.82765     -1376.398       303          
    895000   342.87054     -1375.5407      303          
    896000   296.84494     -1397.8626      303          
    897000   280.83056     -1399.8575      303          
    898000   324.23713     -1391.0041      303          
    899000   302.99049     -1392.9197      303          
    900000   272.26178     -1410.451       303          
    901000   332.82756     -1380.9544      303          
    902000   327.37008     -1386.4587      303          
    903000   271.5402      -1405.1784      303          
    904000   327.47241     -1376.6181      303          
    905000   330.66165     -1384.432       303          
    906000   306.55563     -1387.3383      303          
    907000   289.22255     -1394.9957      303          
    908000   261.06162     -1407.4113      303          
    909000   315.49553     -1375.3405      303          
    910000   262.67063     -1400.6576      303          
    911000   285.21248     -1397.5646      303          
    912000   347.41885     -1377.9998      303          
    913000   281.90159     -1408.8804      303          
    914000   276.90958     -1396.8333      303          
    915000   324.06387     -1373.9435      303          
    916000   276.35513     -1401.4107      303          
    917000   277.06951     -1401.2302      303          
    918000   284.08918     -1389.1538      303          
    919000   335.2266      -1381.8451      303          
    920000   296.2986      -1399.5161      303          
    921000   341.29678     -1379.1676      303          
    922000   293.98286     -1395.7678      303          
    923000   308.76176     -1386.1097      303          
    924000   307.44924     -1390.3033      303          
    925000   280.38285     -1400.9974      303          
    926000   302.37299     -1380.7755      303          
    927000   314.54902     -1374.0654      303          
    928000   280.01637     -1395.5387      303          
    929000   281.21534     -1400.3887      303          
    930000   296.11425     -1382.5857      303          
    931000   321.65454     -1391.1147      303          
    932000   286.11102     -1402.0351      303          
    933000   316.30909     -1380.4172      303          
    934000   264.36638     -1403.1141      303          
    935000   342.30394     -1374.2343      303          
    936000   259.81133     -1405.8486      303          
    937000   317.2474      -1383.6726      303          
    938000   317.59255     -1387.5596      303          
    939000   290.85396     -1395.5979      303          
    940000   304.37888     -1397.6858      303          
    941000   310.13081     -1386.0779      303          
    942000   255.59391     -1408.4988      303          
    943000   317.87955     -1382.5511      303          
    944000   323.01133     -1380.0218      303          
    945000   277.73994     -1400.1343      303          
    946000   318.44571     -1375.1575      303          
    947000   317.36771     -1388.6843      303          
    948000   272.80566     -1406.449       303          
    949000   291.18329     -1402.0369      303          
    950000   331.6726      -1382.3273      303          
    951000   320.672       -1384.8555      303          
    952000   283.7963      -1404.4848      303          
    953000   315.77135     -1377.2475      303          
    954000   290.05587     -1396.7651      303          
    955000   279.73658     -1399.3704      303          
    956000   291.58813     -1400.6359      303          
    957000   318.93219     -1375.5878      303          
    958000   293.13625     -1397.9449      303          
    959000   290.4057      -1399           303          
    960000   339.5508      -1364.4001      303          
    961000   321.04481     -1378.3595      303          
    962000   282.68754     -1404.237       303          
    963000   351.51187     -1373.602       303          
    964000   296.2418      -1395.6651      303          
    965000   304.15299     -1391.9596      303          
    966000   287.79894     -1389.3841      303          
    967000   280.99218     -1401.1078      303          
    968000   317.56028     -1380.5187      303          
    969000   281.5113      -1403.6651      303          
    970000   327.18353     -1377.5082      303          
    971000   337.26833     -1377.2067      303          
    972000   274.46129     -1406.0982      303          
    973000   327.17439     -1385.7707      303          
    974000   313.13429     -1390.4307      303          
    975000   319.17077     -1390.652       303          
    976000   265.74939     -1409.6564      303          
    977000   332.6614      -1383.782       303          
    978000   307.46984     -1394.0806      303          
    979000   292.80379     -1393.5767      303          
    980000   281.35743     -1397.0718      303          
    981000   312.51584     -1388.3047      303          
    982000   274.83847     -1403.6746      303          
    983000   275.37686     -1403.3225      303          
    984000   332.67677     -1383.506       303          
    985000   297.45217     -1388.9011      303          
    986000   304.35656     -1394.064       303          
    987000   343.42267     -1377.9824      303          
    988000   310.48231     -1397.6735      303          
    989000   280.12496     -1408.0152      303          
    990000   366.61747     -1374.2478      303          
    991000   283.68978     -1402.291       303          
    992000   341.93219     -1376.191       303          
    993000   301.72512     -1397.8357      303          
    994000   306.50324     -1386.0246      303          
    995000   283.31103     -1405.128       303          
    996000   293.76755     -1384.6805      303          
    997000   298.80299     -1392.9133      303          
    998000   275.30417     -1401.3885      303          
    999000   308.1701      -1374.252       303          
   1000000   260.91235     -1417.2433      303          
   1001000   272.84727     -1402.1626      303          
   1002000   300.44096     -1387.8932      303          
   1003000   286.76949     -1401.0703      303          
   1004000   298.2793      -1389.9702      303          
   1005000   331.08944     -1390.2805      303          
   1006000   315.53579     -1384.4028      303          
   1007000   294.25536     -1400.1447      303          
   1008000   334.58711     -1372.3733      303          
   1009000   290.03314     -1403.5878      303          
   1010000   267.52442     -1399.8692      303          
   1011000   343.06371     -1366.7352      303          
   1012000   292.89302     -1397.0673      303          
   1013000   293.62102     -1403.5515      303          
   1014000   282.23243     -1393.4142      303          
   1015000   320.43971     -1388.2011      303          
   1016000   273.76145     -1402.3734      303          
   1017000   343.66866     -1385.9993      303          
   1018000   287.22731     -1395.7135      303          
   1019000   266.95685     -1407.9402      303          
   1020000   262.13723     -1407.1822      303          
   1021000   359.80501     -1362.3166      303          
   1022000   298.74501     -1394.0339      303          
   1023000   298.83726     -1399.2627      303          
   1024000   333.77432     -1377.7473      303          
   1025000   301.31134     -1399.3226      303          
   1026000   300.934       -1386.6212      303          
   1027000   296.10588     -1391.0492      303          
   1028000   266.1825      -1415.5007      303          
   1029000   331.06811     -1372.079       303          
   1030000   303.28926     -1396.4304      303          
   1031000   294.90441     -1398.116       303          
   1032000   299.04389     -1386.2463      303          
   1033000   324.07413     -1390.2561      303          
   1034000   262.16707     -1409.6788      303          
   1035000   321.71838     -1387.1373      303          
   1036000   306.02852     -1396.6057      303          
   1037000   309.9344      -1382.5135      303          
   1038000   294.63482     -1401.3839      303          
   1039000   301.22086     -1394.4101      303          
   1040000   330.07782     -1380.6162      303          
   1041000   313.59283     -1389.0389      303          
   1042000   272.82756     -1394.3016      303          
   1043000   339.04348     -1379.7377      303          
   1044000   262.52832     -1410.2787      303          
   1045000   303.96116     -1386.3833      303          
   1046000   324.02393     -1377.5655      303          
   1047000   308.89516     -1399.7076      303          
   1048000   258.31624     -1397.0122      303          
   1049000   329.52306     -1384.663       303          
   1050000   285.96862     -1404.1755      303          
   1051000   307.63489     -1380.3255      303          
   1052000   373.15019     -1371.4923      303          
   1053000   276.45399     -1406.0077      303          
   1054000   330.40684     -1381.9251      303          
   1055000   290.40443     -1400.3469      303          
   1056000   282.79405     -1392.5638      303          
   1057000   310.02833     -1378.9446      303          
   1058000   288.30839     -1404.0648      303          
   1059000   298.31221     -1392.9169      303          
   1060000   292.39133     -1397.1545      303          
   1061000   291.1938      -1386.6848      303          
   1062000   295.86758     -1390.8662      303          
   1063000   316.59295     -1391.7989      303          
   1064000   268.05662     -1399.1558      303          
   1065000   319.77688     -1381.084       303          
   1066000   289.41809     -1400.4646      303          
   1067000   277.63108     -1395.7232      303          
   1068000   286.8028      -1388.8875      303          
   1069000   305.74467     -1397.1866      303          
   1070000   275.01073     -1401.1743      303          
   1071000   281.73611     -1400.4727      303          
   1072000   320.6202      -1373.7447      303          
   1073000   319.28464     -1390.6158      303          
   1074000   300.64265     -1391.784       303          
   1075000   343.7893      -1377.1358      303          
   1076000   273.50594     -1399.6148      303          
   1077000   319.98569     -1383.6922      303          
   1078000   261.75546     -1409.8472      303          
   1079000   318.89968     -1381.6931      303          
   1080000   301.6303      -1395.2742      303          
   1081000   326.33098     -1385.2151      303          
   1082000   305.36304     -1394.7702      303          
   1083000   274.84287     -1405.6187      303          
   1084000   333.15722     -1383.0588      303          
   1085000   287.37868     -1403.5605      303          
   1086000   325.78827     -1376.8443      303          
   1087000   332.15855     -1384.7007      303          
   1088000   292.8923      -1398.5646      303          
   1089000   340.41335     -1381.5395      303          
   1090000   300.6923      -1393.4861      303          
   1091000   252.641       -1407.2181      303          
   1092000   278.14941     -1397.6257      303          
   1093000   295.38749     -1392.2441      303          
   1094000   314.00518     -1388.8768      303          
   1095000   263.2517      -1406.1375      303          
   1096000   307.60157     -1390.4315      303          
   1097000   300.81255     -1377.1111      303          
   1098000   350.78082     -1386.3254      303          
   1099000   278.04046     -1399.4224      303          
   1100000   289.10332     -1396.0589      303          
   1101000   267.0878      -1403.4176      303          
   1102000   286.94586     -1394.1511      303          
   1103000   323.04608     -1384.6092      303          
   1104000   287.62532     -1404.1281      303          
   1105000   286.89542     -1399.9956      303          
   1106000   331.68256     -1370.9275      303          
   1107000   283.40952     -1399.6707      303          
   1108000   310.24028     -1390.0816      303          
   1109000   293.76997     -1393.7337      303          
   1110000   304.61402     -1378.5229      303          
   1111000   311.45995     -1395.1457      303          
   1112000   302.83921     -1388.0877      303          
   1113000   324.12324     -1386.4443      303          
   1114000   261.55202     -1404.9247      303          
   1115000   306.9576      -1388.0884      303          
   1116000   325.34164     -1372.5804      303          
   1117000   298.8995      -1397.4802      303          
   1118000   290.46039     -1391.933       303          
   1119000   292.21336     -1398.7854      303          
   1120000   335.29879     -1367.3059      303          
   1121000   302.88016     -1381.9495      303          
   1122000   291.95297     -1398.8793      303          
   1123000   282.71983     -1394.9203      303          
   1124000   265.01468     -1401.1401      303          
   1125000   278.10807     -1404.2113      303          
   1126000   297.71058     -1388.0546      303          
   1127000   320.77012     -1388.2452      303          
   1128000   293.2027      -1402.2752      303          
   1129000   308.62214     -1381.2678      303          
   1130000   305.72163     -1394.8437      303          
   1131000   264.55466     -1403.0476      303          
   1132000   315.05906     -1386.5399      303          
   1133000   326.19169     -1384.1094      303          
   1134000   304.84929     -1395.8604      303          
   1135000   283.47043     -1398.8033      303          
   1136000   292.6716      -1391.9171      303          
   1137000   279.55759     -1407.0159      303          
   1138000   337.1917      -1372.3373      303          
   1139000   258.04416     -1409.6757      303          
   1140000   283.66887     -1389.1402      303          
   1141000   293.51822     -1402.6737      303          
   1142000   266.96043     -1406.7866      303          
   1143000   294.76736     -1397.2096      303          
   1144000   310.36281     -1389.1156      303          
   1145000   345.46521     -1378.3372      303          
   1146000   294.24422     -1403.7785      303          
   1147000   322.96316     -1379.1033      303          
   1148000   295.08743     -1398.5739      303          
   1149000   324.68511     -1379.8896      303          
   1150000   324.96582     -1377.6555      303          
   1151000   284.80269     -1402.5401      303          
   1152000   303.50299     -1380.8352      303          
   1153000   288.07173     -1403.7687      303          
   1154000   289.40225     -1401.5795      303          
   1155000   301.43015     -1389.9712      303          
   1156000   299.87544     -1394.7392      303          
   1157000   294.41901     -1400.2817      303          
   1158000   286.26653     -1388.7244      303          
   1159000   304.63225     -1394.3555      303          
   1160000   276.78778     -1395.34        303          
   1161000   341.66046     -1377.8327      303          
   1162000   310.73179     -1389.3449      303          
   1163000   289.64308     -1394.6606      303          
   1164000   308.01306     -1389.1868      303          
   1165000   298.80884     -1401.3775      303          
   1166000   315.44368     -1394.8043      303          
   1167000   313.81772     -1379.8237      303          
   1168000   310.82881     -1385.5753      303          
   1169000   308.07312     -1398.568       303          
   1170000   276.85597     -1407.6132      303          
   1171000   319.63831     -1385.1326      303          
   1172000   322.59853     -1385.2058      303          
   1173000   300.53231     -1396.1202      303          
   1174000   351.34744     -1370.4167      303          
   1175000   264.40337     -1405.6295      303          
   1176000   272.33272     -1396.4985      303          
   1177000   339.1508      -1374.5449      303          
   1178000   309.12641     -1397.4483      303          
   1179000   315.92225     -1381.4093      303          
   1180000   309.49017     -1380.5908      303          
   1181000   302.73293     -1395.0754      303          
   1182000   276.44997     -1403.8119      303          
   1183000   338.86222     -1374.3904      303          
   1184000   308.7332      -1392.8455      303          
   1185000   293.11287     -1395.9924      303          
   1186000   278.05736     -1395.4226      303          
   1187000   297.84544     -1379.8616      303          
   1188000   342.4016      -1382.8867      303          
   1189000   299.52901     -1395.9111      303          
   1190000   306.32905     -1390.9611      303          
   1191000   342.68928     -1372.455       303          
   1192000   286.40278     -1404.8559      303          
   1193000   307.06876     -1383.899       303          
   1194000   285.48046     -1402.0119      303          
   1195000   291.19131     -1390.8214      303          
   1196000   326.55189     -1377.31        303          
   1197000   277.85026     -1402.788       303          
   1198000   309.16341     -1387.4801      303          
   1199000   283.52953     -1392.1267      303          
   1200000   303.74499     -1394.6999      303          
   1201000   308.39581     -1388.0291      303          
   1202000   331.31292     -1385.5514      303          
   1203000   281.55837     -1400.1972      303          
   1204000   293.2416      -1396.2042      303          
   1205000   341.1028      -1378.2514      303          
   1206000   308.39626     -1389.1312      303          
   1207000   299.3433      -1390.7397      303          
   1208000   353.40346     -1377.6746      303          
   1209000   285.5059      -1397.9456      303          
   1210000   310.16555     -1377.2502      303          
   1211000   307.63385     -1391.0103      303          
   1212000   294.98798     -1398.112       303          
   1213000   274.47265     -1395.2284      303          
   1214000   318.77492     -1388.3489      303          
   1215000   314.03273     -1384.1346      303          
   1216000   280.19897     -1406.0275      303          
   1217000   302.21856     -1384.6595      303          
   1218000   286.90631     -1408.5299      303          
   1219000   333.73927     -1374.5236      303          
   1220000   277.92416     -1407.8023      303          
   1221000   300.18158     -1387.6975      303          
   1222000   308.0298      -1397.394       303          
   1223000   321.92853     -1383.8155      303          
   1224000   307.84573     -1383.2293      303          
   1225000   303.50421     -1391.8875      303          
   1226000   281.21348     -1388.7091      303          
   1227000   314.05012     -1383.8721      303          
   1228000   281.0809      -1395.6053      303          
   1229000   342.01743     -1382.0987      303          
   1230000   303.28231     -1390.7918      303          
   1231000   313.92223     -1387.7956      303          
   1232000   316.2742      -1382.2392      303          
   1233000   279.17584     -1402.5327      303          
   1234000   322.313       -1378.0296      303          
   1235000   294.46123     -1401.9928      303          
   1236000   263.20892     -1414.2241      303          
   1237000   309.95486     -1390.9954      303          
   1238000   290.36498     -1391.0591      303          
   1239000   329.77617     -1372.4216      303          
   1240000   322.5521      -1393.5447      303          
   1241000   283.9056      -1398.8907      303          
   1242000   322.98266     -1378.122       303          
   1243000   306.01346     -1395.2627      303          
   1244000   272.91085     -1404.0715      303          
   1245000   305.87898     -1388.2816      303          
   1246000   336.67013     -1376.7213      303          
   1247000   302.94502     -1389.892       303          
   1248000   322.81049     -1383.0485      303          
   1249000   286.63755     -1397.7516      303          
   1250000   315.73618     -1387.8812      303          
   1251000   288.7557      -1396.8845      303          
   1252000   280.90477     -1407.2106      303          
   1253000   307.37041     -1397.7533      303          
   1254000   311.66582     -1392.1796      303          
   1255000   301.56359     -1390.5027      303          
   1256000   286.90097     -1402.6868      303          
   1257000   271.94519     -1402.0019      303          
   1258000   310.12007     -1383.0872      303          
   1259000   295.16533     -1388.6091      303          
   1260000   343.81038     -1374.3788      303          
   1261000   321.6983      -1387.6306      303          
   1262000   314.93314     -1394.0742      303          
   1263000   260.3829      -1413.7085      303          
   1264000   311.36997     -1387.7952      303          
   1265000   274.44174     -1403.277       303          
   1266000   312.30723     -1386.8443      303          
   1267000   317.51403     -1396.3212      303          
   1268000   272.79599     -1403.7189      303          
   1269000   322.03708     -1384.9825      303          
   1270000   321.52492     -1386.691       303          
   1271000   305.20682     -1384.6261      303          
   1272000   333.31971     -1383.6474      303          
   1273000   300.46157     -1395.7935      303          
   1274000   281.28161     -1401.6333      303          
   1275000   274.30886     -1402.0631      303          
   1276000   307.4008      -1384.2245      303          
   1277000   319.32679     -1396.3419      303          
   1278000   288.29819     -1392.7904      303          
   1279000   314.22879     -1393.4087      303          
   1280000   286.12809     -1397.1186      303          
   1281000   314.06769     -1377.5892      303          
   1282000   304.66525     -1390.2627      303          
   1283000   289.88345     -1397.5931      303          
   1284000   310.75081     -1395.1795      303          
   1285000   340.38266     -1385.258       303          
   1286000   307.34136     -1378.2053      303          
   1287000   277.26893     -1405.1063      303          
   1288000   291.36254     -1399.1363      303          
   1289000   263.84106     -1407.0309      303          
   1290000   346.40633     -1376.6433      303          
   1291000   303.78677     -1390.1777      303          
   1292000   319.83422     -1387.9909      303          
   1293000   300.5705      -1391.238       303          
   1294000   316.93106     -1389.597       303          
   1295000   269.53688     -1398.1869      303          
   1296000   351.33444     -1387.4427      303          
   1297000   290.04196     -1396.9058      303          
   1298000   279.58827     -1405.0046      303          
   1299000   271.46638     -1402.031       303          
   1300000   317.96972     -1395.0704      303          
   1301000   267.292       -1402.4682      303          
   1302000   274.66611     -1407.1838      303          
   1303000   301.69238     -1388.3002      303          
   1304000   312.42093     -1398.6213      303          
   1305000   288.0478      -1400.1811      303          
   1306000   313.577       -1387.8594      303          
   1307000   291.46096     -1404.6256      303          
   1308000   297.6382      -1394.8784      303          
   1309000   278.91105     -1409.0801      303          
   1310000   313.47979     -1391.5023      303          
   1311000   342.89279     -1377.416       303          
   1312000   298.92276     -1399.0053      303          
   1313000   265.40793     -1406.5148      303          
   1314000   342.24661     -1374.3414      303          
   1315000   325.58571     -1381.7806      303          
   1316000   294.30143     -1400.3229      303          
   1317000   307.70029     -1389.4687      303          
   1318000   279.81477     -1405.7793      303          
   1319000   276.31161     -1398.0619      303          
   1320000   320.7986      -1373.0518      303          
   1321000   307.79386     -1391.633       303          
   1322000   298.11777     -1382.1482      303          
   1323000   310.36557     -1393.1618      303          
   1324000   273.32207     -1408.969       303          
   1325000   327.87877     -1374.2143      303          
   1326000   319.02277     -1391.7819      303          
   1327000   312.52294     -1389.6606      303          
   1328000   309.42126     -1383.5944      303          
   1329000   289.21336     -1399.5017      303          
   1330000   320.15849     -1383.0466      303          
   1331000   320.62426     -1377.8343      303          
   1332000   321.35811     -1375.2172      303          
   1333000   292.47482     -1400.0354      303          
   1334000   333.31133     -1370.9115      303          
   1335000   268.45154     -1407.5782      303          
   1336000   321.50636     -1374.7307      303          
   1337000   340.81818     -1382.7729      303          
   1338000   320.17147     -1382.7221      303          
   1339000   291.62152     -1394.3284      303          
   1340000   321.411       -1372.5877      303          
   1341000   320.97149     -1389.9501      303          
   1342000   301.01695     -1389.2491      303          
   1343000   315.36417     -1390.3125      303          
   1344000   290.45146     -1396.1723      303          
   1345000   300.98196     -1395.8914      303          
   1346000   296.4911      -1398.1948      303          
   1347000   325.68534     -1383.4665      303          
   1348000   293.6593      -1402.7344      303          
   1349000   306.90073     -1389.9687      303          
   1350000   309.92489     -1382.3924      303          
   1351000   299.80652     -1396.3858      303          
   1352000   300.15268     -1382.3689      303          
   1353000   315.92451     -1382.7003      303          
   1354000   303.1481      -1385.675       303          
   1355000   311.56852     -1395.8151      303          
   1356000   310.20921     -1393.1496      303          
   1357000   323.31042     -1384.4713      303          
   1358000   309.12018     -1389.9306      303          
   1359000   298.38695     -1397.1857      303          
   1360000   287.87427     -1400.5657      303          
   1361000   332.09218     -1380.8468      303          
   1362000   285.40115     -1391.4792      303          
   1363000   311.85214     -1397.0383      303          
   1364000   288.52671     -1394.4703      303          
   1365000   275.34765     -1405.1938      303          
   1366000   310.75379     -1378.2286      303          
   1367000   293.87698     -1400.6633      303          
   1368000   314.05677     -1391.118       303          
   1369000   344.61906     -1384.3003      303          
   1370000   352.26876     -1383.4235      303          
   1371000   310.83764     -1399.1676      303          
   1372000   316.90869     -1384.7015      303          
   1373000   325.84434     -1380.5732      303          
   1374000   284.54621     -1400.2016      303          
   1375000   295.24963     -1397.3417      303          
   1376000   292.28319     -1389.1422      303          
   1377000   341.16066     -1379.7665      303          
   1378000   268.12078     -1410.7795      303          
   1379000   302.85541     -1395.7057      303          
   1380000   307.53194     -1398.4252      303          
   1381000   322.99918     -1384.4868      303          
   1382000   303.63102     -1396.9356      303          
   1383000   289.13101     -1392.8505      303          
   1384000   299.71196     -1398.8012      303          
   1385000   269.28701     -1392.1851      303          
   1386000   325.94452     -1391.4801      303          
   1387000   278.87239     -1404.4823      303          
   1388000   337.10219     -1368.4896      303          
   1389000   265.68388     -1407.7933      303          
   1390000   300.92846     -1389.0612      303          
   1391000   291.67179     -1399.9218      303          
   1392000   289.4047      -1389.8887      303          
   1393000   300.23425     -1380.6961      303          
   1394000   313.0038      -1382.2342      303          
   1395000   306.44196     -1389.9274      303          
   1396000   335.26909     -1385.0673      303          
   1397000   315.97056     -1387.0908      303          
   1398000   270.33064     -1403.7069      303          
   1399000   327.20991     -1376.5813      303          
   1400000   284.92854     -1403.9301      303          
   1401000   291.16713     -1391.2868      303          
   1402000   293.39414     -1398.5385      303          
   1403000   304.879       -1397.8349      303          
   1404000   304.46803     -1387.0464      303          
   1405000   329.47436     -1390.7053      303          
   1406000   282.8314      -1398.3545      303          
   1407000   319.5516      -1371.8417      303          
   1408000   285.67311     -1396.9178      303          
   1409000   298.68887     -1395.8598      303          
   1410000   269.2244      -1404.3333      303          
   1411000   319.24707     -1382.5216      303          
   1412000   283.65462     -1398.6926      303          
   1413000   368.4626      -1363.6333      303          
   1414000   298.24137     -1392.7067      303          
   1415000   359.46797     -1362.8719      303          
   1416000   309.94335     -1385.0952      303          
   1417000   333.32748     -1379.9383      303          
   1418000   301.59887     -1393.9711      303          
   1419000   333.12669     -1381.2411      303          
   1420000   285.15512     -1398.8364      303          
   1421000   306.26165     -1390.566       303          
   1422000   291.064       -1397.2986      303          
   1423000   294.56413     -1392.863       303          
   1424000   338.75217     -1369.4992      303          
   1425000   285.85966     -1389.0064      303          
   1426000   318.39688     -1387.4078      303          
   1427000   311.63044     -1381.2868      303          
   1428000   308.36509     -1395.0983      303          
   1429000   306.07845     -1387.0499      303          
   1430000   305.27868     -1391.2155      303          
   1431000   291.74751     -1393.3437      303          
   1432000   293.80202     -1400.282       303          
   1433000   268.02312     -1398.9149      303          
   1434000   310.90355     -1375.3046      303          
   1435000   294.88528     -1392.7644      303          
   1436000   331.85136     -1390.4947      303          
   1437000   285.79831     -1398.5071      303          
   1438000   318.41176     -1385.6271      303          
   1439000   310.91786     -1389.2993      303          
   1440000   293.60734     -1396.2903      303          
   1441000   298.80362     -1387.1128      303          
   1442000   301.28616     -1394.2325      303          
   1443000   288.03433     -1400.8987      303          
   1444000   292.31508     -1388.0134      303          
   1445000   328.70028     -1380.3356      303          
   1446000   270.62716     -1398.5884      303          
   1447000   282.4715      -1394.8432      303          
   1448000   335.69206     -1372.4852      303          
   1449000   299.71804     -1396.7697      303          
   1450000   303.28511     -1391.4513      303          
   1451000   270.45132     -1406.4356      303          
   1452000   315.86091     -1392.2847      303          
   1453000   314.03967     -1393.4894      303          
   1454000   302.20957     -1403.6132      303          
   1455000   303.34804     -1394.7214      303          
   1456000   284.00378     -1396.3353      303          
   1457000   349.6585      -1370.291       303          
   1458000   276.63704     -1405.0336      303          
   1459000   311.16369     -1381.8723      303          
   1460000   296.14181     -1397.7581      303          
   1461000   303.38043     -1386.2971      303          
   1462000   259.5164      -1413.9312      303          
   1463000   287.80007     -1391.4859      303          
   1464000   333.55532     -1374.5067      303          
   1465000   297.78493     -1394.6577      303          
   1466000   311.51669     -1392.4084      303          
   1467000   327.29907     -1386.3866      303          
   1468000   285.54477     -1402.7846      303          
   1469000   332.35945     -1380.8987      303          
   1470000   295.89492     -1393.4677      303          
   1471000   325.64693     -1385.0038      303          
   1472000   306.29078     -1397.4022      303          
   1473000   278.52696     -1394.3608      303          
   1474000   304.07378     -1393.3227      303          
   1475000   306.61857     -1390.54        303          
   1476000   271.32638     -1402.5265      303          
   1477000   311.18316     -1381.6932      303          
   1478000   305.94752     -1395.5036      303          
   1479000   304.27872     -1399.2456      303          
   1480000   329.49878     -1376.3058      303          
   1481000   278.17076     -1406.6857      303          
   1482000   310.59586     -1383.0597      303          
   1483000   312.78321     -1391.069       303          
   1484000   307.13867     -1382.3377      303          
   1485000   281.596       -1399.9581      303          
   1486000   332.21991     -1381.4923      303          
   1487000   255.84067     -1414.7122      303          
   1488000   279.99033     -1397.1052      303          
   1489000   273.12787     -1406.8492      303          
   1490000   338.05498     -1372.4766      303          
   1491000   291.75387     -1401.8235      303          
   1492000   292.31747     -1386.9166      303          
   1493000   312.38574     -1393.0278      303          
   1494000   268.98553     -1399.2751      303          
   1495000   272.44106     -1407.4039      303          
   1496000   364.49924     -1358.8338      303          
   1497000   331.90595     -1386.1172      303          
   1498000   304.23844     -1398.389       303          
   1499000   293.06402     -1385.3052      303          
   1500000   253.20129     -1403.3726      303          
   1501000   346.07175     -1373.4874      303          
   1502000   278.86243     -1407.0931      303          
   1503000   275.5209      -1405.0697      303          
   1504000   297.5945      -1390.8494      303          
   1505000   293.77723     -1394.6409      303          
   1506000   284.47275     -1406.9302      303          
   1507000   292.13132     -1392.7883      303          
   1508000   310.26008     -1391.6531      303          
   1509000   324.36404     -1381.4888      303          
   1510000   273.60433     -1406.0245      303          
   1511000   307.56818     -1386.9755      303          
   1512000   333.31998     -1378.3226      303          
   1513000   299.53089     -1390.4732      303          
   1514000   332.23809     -1382.4415      303          
   1515000   288.28545     -1399.4174      303          
   1516000   309.52522     -1389.2945      303          
   1517000   277.03356     -1407.7507      303          
   1518000   347.03346     -1377.9009      303          
   1519000   302.29568     -1397.7619      303          
   1520000   293.19507     -1390.1212      303          
   1521000   321.60397     -1385.2485      303          
   1522000   268.63304     -1400.1119      303          
   1523000   332.72029     -1382.9541      303          
   1524000   322.20607     -1387.9831      303          
   1525000   297.08008     -1393.0619      303          
   1526000   309.66312     -1393.3325      303          
   1527000   296.68206     -1391.2224      303          
   1528000   302.44797     -1389.0081      303          
   1529000   286.49661     -1405.0047      303          
   1530000   300.84735     -1389.3347      303          
   1531000   303.01127     -1390.0711      303          
   1532000   338.16307     -1382.1433      303          
   1533000   271.40951     -1404.083       303          
   1534000   314.64556     -1380.7871      303          
   1535000   321.72913     -1387.7862      303          
   1536000   310.75573     -1396.7489      303          
   1537000   302.29937     -1392.4243      303          
   1538000   319.8891      -1386.227       303          
   1539000   285.59853     -1394.641       303          
   1540000   341.68209     -1377.9898      303          
   1541000   271.05492     -1406.3562      303          
   1542000   330.35023     -1375.9188      303          
   1543000   283.01887     -1405.6402      303          
   1544000   305.54244     -1380.943       303          
   1545000   339.8718      -1379.9195      303          
   1546000   263.75218     -1408.0363      303          
   1547000   319.48896     -1380.1385      303          
   1548000   293.53341     -1397.5706      303          
   1549000   336.25514     -1374.7869      303          
   1550000   285.75707     -1402.9222      303          
   1551000   321.63344     -1382.0104      303          
   1552000   294.68868     -1395.1416      303          
   1553000   315.24026     -1381.9057      303          
   1554000   326.44952     -1378.6098      303          
   1555000   308.53664     -1392.3584      303          
   1556000   266.06899     -1405.5469      303          
   1557000   355.05469     -1369.6835      303          
   1558000   297.50882     -1401.079       303          
   1559000   282.13372     -1394.9199      303          
   1560000   328.64393     -1382.1093      303          
   1561000   292.04302     -1404.4013      303          
   1562000   352.07618     -1371.9193      303          
   1563000   289.1027      -1401.9888      303          
   1564000   288.17469     -1400.343       303          
   1565000   282.55341     -1401           303          
   1566000   331.09364     -1380.1639      303          
   1567000   297.20622     -1395.6853      303          
   1568000   338.03492     -1379.8285      303          
   1569000   268.54767     -1407.3437      303          
   1570000   272.92419     -1391.7548      303          
   1571000   259.51624     -1400.7184      303          
   1572000   295.09269     -1387.2445      303          
   1573000   287.21368     -1398.3576      303          
   1574000   316.0962      -1381.4908      303          
   1575000   275.95423     -1407.4336      303          
   1576000   312.0263      -1381.7947      303          
   1577000   334.15478     -1386.314       303          
   1578000   280.0169      -1388.2741      303          
   1579000   296.36104     -1402.9893      303          
   1580000   329.18895     -1382.0913      303          
   1581000   306.44603     -1393.7873      303          
   1582000   274.79363     -1395.8979      303          
   1583000   319.18826     -1390.1006      303          
   1584000   286.11481     -1398.009       303          
   1585000   297.29261     -1401.2017      303          
   1586000   293.52244     -1401.049       303          
   1587000   299.37572     -1390.897       303          
   1588000   322.83679     -1378.9298      303          
   1589000   318.20294     -1396.8199      303          
   1590000   319.38542     -1391.9936      303          
   1591000   274.04066     -1406.1776      303          
   1592000   274.94457     -1391.9451      303          
   1593000   334.9557      -1382.159       303          
   1594000   270.13578     -1408.2747      303          
   1595000   333.06527     -1379.5639      303          
   1596000   277.78911     -1401.6598      303          
   1597000   347.33595     -1368.3949      303          
   1598000   311.44155     -1386.6807      303          
   1599000   292.71564     -1403.2965      303          
   1600000   305.43734     -1387.6296      303          
   1601000   289.77733     -1402.3629      303          
   1602000   260.5091      -1415.0323      303          
   1603000   314.95954     -1393.4375      303          
   1604000   324.60246     -1382.8148      303          
   1605000   308.46596     -1382.8501      303          
   1606000   287.90199     -1396.353       303          
   1607000   312.17155     -1388.8546      303          
   1608000   284.44747     -1409.8675      303          
   1609000   302.63407     -1385.2904      303          
   1610000   285.8922      -1394.2524      303          
   1611000   321.52115     -1386.0095      303          
   1612000   330.91292     -1387.2009      303          
   1613000   262.68488     -1407.7202      303          
   1614000   303.33591     -1388.5921      303          
   1615000   291.19482     -1401.5955      303          
   1616000   298.78333     -1396.0712      303          
   1617000   311.00879     -1390.4691      303          
   1618000   280.82821     -1398.1926      303          
   1619000   284.35249     -1397.4819      303          
   1620000   343.32992     -1388.0542      303          
   1621000   314.61884     -1392.2027      303          
   1622000   330.1181      -1379.9266      303          
   1623000   304.69165     -1395.9611      303          
   1624000   275.00336     -1410.6832      303          
   1625000   310.19116     -1389.8689      303          
   1626000   325.34947     -1376.1832      303          
   1627000   309.2434      -1393.9237      303          
   1628000   268.80446     -1411.835       303          
   1629000   303.84031     -1388.9664      303          
   1630000   286.64952     -1401.1333      303          
   1631000   317.07183     -1382.1776      303          
   1632000   329.58681     -1373.6336      303          
   1633000   299.25351     -1397.7996      303          
   1634000   274.98274     -1405.444       303          
   1635000   279.67528     -1405.8048      303          
   1636000   307.2408      -1387.1541      303          
   1637000   302.58495     -1393.5879      303          
   1638000   265.9626      -1406.4795      303          
   1639000   321.33204     -1372           303          
   1640000   304.85366     -1400.1915      303          
   1641000   303.18069     -1389.9354      303          
   1642000   286.02469     -1394.4017      303          
   1643000   310.44389     -1386.0264      303          
   1644000   343.80472     -1378.5291      303          
   1645000   286.71461     -1397.6113      303          
   1646000   322.0969      -1383.3187      303          
   1647000   330.71779     -1392.0238      303          
   1648000   258.31224     -1400.2363      303          
   1649000   296.86797     -1398.9398      303          
   1650000   318.09728     -1389.8294      303          
   1651000   311.51822     -1387.0595      303          
   1652000   315.35718     -1392.1924      303          
   1653000   293.4394      -1397.8254      303          
   1654000   302.52913     -1382.4149      303          
   1655000   347.63515     -1382.359       303          
   1656000   288.64539     -1402.6583      303          
   1657000   332.76559     -1385.2282      303          
   1658000   292.94149     -1393.8391      303          
   1659000   288.32442     -1399.3292      303          
   1660000   305.23338     -1390.8062      303          
   1661000   274.15559     -1407.1769      303          
   1662000   260.89437     -1407.4224      303          
   1663000   296.087       -1395.9456      303          
   1664000   327.57112     -1385.8433      303          
   1665000   316.07463     -1391.9887      303          
   1666000   272.72063     -1404.4486      303          
   1667000   311.56002     -1383.1788      303          
   1668000   264.2657      -1405.5523      303          
   1669000   303.29351     -1392.5371      303          
   1670000   287.0969      -1399.9913      303          
   1671000   309.41662     -1395.8532      303          
   1672000   320.56433     -1386.5275      303          
   1673000   315.44603     -1393.7106      303          
   1674000   296.02514     -1404.0664      303          
   1675000   288.07986     -1394.3402      303          
   1676000   307.41854     -1396.158       303          
   1677000   316.42561     -1383.2593      303          
   1678000   267.35467     -1410.1964      303          
   1679000   288.03876     -1392.4062      303          
   1680000   309.60251     -1398.8602      303          
   1681000   295.71569     -1390.019       303          
   1682000   295.44149     -1395.6657      303          
   1683000   272.59421     -1408.7381      303          
   1684000   334.16277     -1384.4654      303          
   1685000   293.33531     -1403.7607      303          
   1686000   288.32938     -1396.7105      303          
   1687000   326.50837     -1386.1109      303          
   1688000   278.97698     -1401.1557      303          
   1689000   294.721       -1395.5072      303          
   1690000   341.91872     -1378.5211      303          
   1691000   278.2735      -1409.0223      303          
   1692000   282.05652     -1399.2216      303          
   1693000   303.88704     -1387.046       303          
   1694000   334.78833     -1388.8378      303          
   1695000   290.48925     -1402.9443      303          
   1696000   290.38677     -1400.7334      303          
   1697000   323.4336      -1383.4461      303          
   1698000   294.85335     -1400.4755      303          
   1699000   322.76043     -1380.0745      303          
   1700000   283.91765     -1409.3975      303          
   1701000   314.46603     -1379.2972      303          
   1702000   303.74798     -1402.4246      303          
   1703000   292.72747     -1384.2834      303          
   1704000   306.18587     -1393.0821      303          
   1705000   311.40652     -1385.5765      303          
   1706000   267.76357     -1405.026       303          
   1707000   322.09287     -1388.5878      303          
   1708000   310.83494     -1395.3377      303          
   1709000   280.89565     -1407.7596      303          
   1710000   325.21459     -1387.1541      303          
   1711000   322.88448     -1390.0115      303          
   1712000   281.69159     -1397.816       303          
   1713000   297.5328      -1400.2105      303          
   1714000   293.10105     -1393.0415      303          
   1715000   297.24439     -1400.1963      303          
   1716000   325.47111     -1384.0666      303          
   1717000   314.87628     -1395.168       303          
   1718000   282.06429     -1402.8723      303          
   1719000   288.01825     -1388.7461      303          
   1720000   321.62625     -1390.0979      303          
   1721000   295.33116     -1399.1739      303          
   1722000   296.50184     -1400.5458      303          
   1723000   342.63552     -1385.8929      303          
   1724000   328.93482     -1385.4047      303          
   1725000   280.90105     -1407.0469      303          
   1726000   315.13293     -1383.5082      303          
   1727000   322.99768     -1395.593       303          
   1728000   321.25189     -1384.8704      303          
   1729000   353.13893     -1376.1488      303          
   1730000   302.14575     -1388.812       303          
   1731000   325.40867     -1389.2865      303          
   1732000   325.44148     -1377.1506      303          
   1733000   306.33104     -1388.0057      303          
   1734000   297.51762     -1387.4348      303          
   1735000   290.24596     -1389.032       303          
   1736000   289.7763      -1408.3645      303          
   1737000   348.4013      -1385.7103      303          
   1738000   280.42687     -1398.1735      303          
   1739000   300.75502     -1400.0727      303          
   1740000   294.56992     -1400.7699      303          
   1741000   273.97656     -1402.9106      303          
   1742000   331.12047     -1389.1892      303          
   1743000   321.69141     -1379.9139      303          
   1744000   273.37281     -1408.0052      303          
   1745000   301.42494     -1385.6277      303          
   1746000   333.33029     -1390.2798      303          
   1747000   267.46296     -1409.969       303          
   1748000   338.20567     -1386.7792      303          
   1749000   278.42928     -1397.348       303          
   1750000   350.20768     -1381.1628      303          
   1751000   292.14518     -1394.4657      303          
   1752000   322.04065     -1380.8594      303          
   1753000   291.62503     -1408.3801      303          
   1754000   349.89791     -1371.4611      303          
   1755000   290.84394     -1402.5402      303          
   1756000   330.38036     -1376.4837      303          
   1757000   283.98236     -1396.802       303          
   1758000   335.13273     -1383.4139      303          
   1759000   306.92115     -1398.3146      303          
   1760000   290.68405     -1400.0647      303          
   1761000   288.78704     -1400.7691      303          
   1762000   317.47796     -1386.8358      303          
   1763000   286.61599     -1405.0559      303          
   1764000   289.72499     -1393.5909      303          
   1765000   283.21583     -1393.2052      303          
   1766000   332.34782     -1383.2806      303          
   1767000   258.35348     -1414.2076      303          
   1768000   319.61201     -1384.6031      303          
   1769000   263.1983      -1407.4844      303          
   1770000   291.68474     -1385.4638      303          
   1771000   288.72187     -1397.6209      303          
   1772000   288.16014     -1388.4145      303          
   1773000   293.63288     -1401.5889      303          
   1774000   295.21135     -1389.5862      303          
   1775000   323.69492     -1388.9056      303          
   1776000   321.9357      -1383.9952      303          
   1777000   312.79382     -1393.6927      303          
   1778000   280.232       -1401.3985      303          
   1779000   315.5318      -1391.9268      303          
   1780000   288.06655     -1400.4577      303          
   1781000   300.04137     -1390.6221      303          
   1782000   337.34322     -1378.2293      303          
   1783000   301.04305     -1394.4778      303          
   1784000   244.25716     -1415.2157      303          
   1785000   342.45191     -1374.5411      303          
   1786000   261.39603     -1409.6145      303          
   1787000   281.5134      -1404.5953      303          
   1788000   291.18647     -1386.1319      303          
   1789000   323.99436     -1388.7285      303          
   1790000   250.42555     -1412.3058      303          
   1791000   305.16177     -1385.427       303          
   1792000   295.07251     -1400.1051      303          
   1793000   340.49274     -1376.1871      303          
   1794000   281.45372     -1395.1596      303          
   1795000   263.07788     -1411.532       303          
   1796000   311.86144     -1388.6314      303          
   1797000   321.38001     -1380.3704      303          
   1798000   315.78605     -1379.6915      303          
   1799000   305.63413     -1393.9386      303          
   1800000   316.78639     -1384.1758      303          
   1801000   318.6991      -1387.872       303          
   1802000   344.93129     -1378.9574      303          
   1803000   291.06933     -1399.2398      303          
   1804000   311.49279     -1393.2466      303          
   1805000   299.59534     -1398.9707      303          
   1806000   287.8811      -1387.6145      303          
   1807000   286.8412      -1398.7569      303          
   1808000   310.42301     -1383.621       303          
   1809000   288.83872     -1401.7684      303          
   1810000   316.44313     -1378.4097      303          
   1811000   300.35323     -1403.0659      303          
   1812000   333.67737     -1382.8232      303          
   1813000   325.88012     -1393.0411      303          
   1814000   296.77769     -1393.5605      303          
   1815000   341.99594     -1384.7652      303          
   1816000   282.68329     -1402.4479      303          
   1817000   304.58875     -1391.4727      303          
   1818000   285.37988     -1412.5859      303          
   1819000   275.0647      -1400.7471      303          
   1820000   319.47291     -1384.4531      303          
   1821000   253.96213     -1416.1431      303          
   1822000   291.58901     -1399.856       303          
   1823000   291.7957      -1404.7608      303          
   1824000   333.67682     -1387.3715      303          
   1825000   263.05439     -1414.1473      303          
   1826000   331.58268     -1382.3977      303          
   1827000   296.88293     -1398.6406      303          
   1828000   332.42808     -1387.9394      303          
   1829000   283.04066     -1408.1074      303          
   1830000   299.6126      -1389.2424      303          
   1831000   317.5038      -1383.4457      303          
   1832000   304.89915     -1390.5196      303          
   1833000   285.44631     -1404.9085      303          
   1834000   317.29327     -1378.8958      303          
   1835000   322.42065     -1392.0692      303          
   1836000   281.72103     -1406.2128      303          
   1837000   299.3673      -1393.083       303          
   1838000   281.50273     -1401.0272      303          
   1839000   361.00827     -1375.5729      303          
   1840000   265.76581     -1414.2989      303          
   1841000   327.76359     -1382.4597      303          
   1842000   280.124       -1403.2655      303          
   1843000   336.36284     -1380.0709      303          
   1844000   317.45342     -1392.762       303          
   1845000   320.03989     -1394.0417      303          
   1846000   303.82763     -1398.4653      303          
   1847000   320.97036     -1387.731       303          
   1848000   313.01337     -1395.9057      303          
   1849000   310.96275     -1399.4434      303          
   1850000   302.20636     -1395.1515      303          
   1851000   307.26421     -1383.0329      303          
   1852000   310.54246     -1388.907       303          
   1853000   316.97509     -1391.5834      303          
   1854000   285.07269     -1401.0052      303          
   1855000   316.75154     -1384.5073      303          
   1856000   310.63087     -1391.385       303          
   1857000   275.58864     -1401.1066      303          
   1858000   273.85796     -1398.8138      303          
   1859000   278.10273     -1404.7222      303          
   1860000   306.64623     -1379.4911      303          
   1861000   376.59518     -1365.3903      303          
   1862000   298.30061     -1407.2144      303          
   1863000   319.77574     -1385.9578      303          
   1864000   337.51152     -1382.7195      303          
   1865000   295.97963     -1406.0047      303          
   1866000   264.83113     -1409.5585      303          
   1867000   305.25261     -1396.2713      303          
   1868000   304.85602     -1392.0418      303          
   1869000   347.36185     -1379.1242      303          
   1870000   315.97924     -1392.6101      303          
   1871000   321.10007     -1382.8881      303          
   1872000   281.24329     -1395.2685      303          
   1873000   334.24202     -1385.0356      303          
   1874000   296.46945     -1397.98        303          
   1875000   315.72372     -1394.2627      303          
   1876000   320.91341     -1390.3164      303          
   1877000   315.29187     -1386.7399      303          
   1878000   272.66705     -1406.0031      303          
   1879000   337.07839     -1378.3133      303          
   1880000   283.49273     -1404.3292      303          
   1881000   314.10629     -1393.4921      303          
   1882000   293.38314     -1399.249       303          
   1883000   346.24735     -1384.0773      303          
   1884000   269.85297     -1408.1828      303          
   1885000   289.20595     -1401.2584      303          
   1886000   266.33832     -1397.1094      303          
   1887000   332.14818     -1386.3832      303          
   1888000   313.01293     -1394.9332      303          
   1889000   285.42467     -1401.6316      303          
   1890000   316.81478     -1382.4599      303          
   1891000   314.05716     -1389.3763      303          
   1892000   283.93992     -1394.8881      303          
   1893000   350.04955     -1376.4097      303          
   1894000   311.21144     -1399.3226      303          
   1895000   288.85445     -1406.3036      303          
   1896000   301.23583     -1393.3556      303          
   1897000   307.38078     -1386.3459      303          
   1898000   313.28338     -1394.1732      303          
   1899000   293.03625     -1395.2037      303          
   1900000   325.59777     -1386.4258      303          
   1901000   272.06812     -1406.4987      303          
   1902000   292.77139     -1391.1916      303          
   1903000   320.01586     -1384.4242      303          
   1904000   296.00964     -1397.6088      303          
   1905000   256.46423     -1411.7174      303          
   1906000   291.35987     -1407.8762      303          
   1907000   313.74042     -1383.1307      303          
   1908000   309.97751     -1389.2608      303          
   1909000   272.97385     -1404.6686      303          
   1910000   293.58845     -1392.6133      303          
   1911000   283.13378     -1401.6381      303          
   1912000   314.17969     -1393.7157      303          
   1913000   273.75429     -1405.6061      303          
   1914000   343.42027     -1378.6065      303          
   1915000   339.69449     -1383.3401      303          
   1916000   327.18316     -1387.979       303          
   1917000   274.62419     -1404.5595      303          
   1918000   298.24749     -1390.1567      303          
   1919000   298.2736      -1401.4858      303          
   1920000   318.2307      -1382.4136      303          
   1921000   318.59642     -1386.2906      303          
   1922000   278.99606     -1409.4866      303          
   1923000   293.34004     -1390.3895      303          
   1924000   315.03359     -1393.0198      303          
   1925000   282.0885      -1402.5466      303          
   1926000   343.28833     -1378.3111      303          
   1927000   289.87269     -1396.213       303          
   1928000   312.48079     -1387.4688      303          
   1929000   325.60269     -1386.3184      303          
   1930000   291.37052     -1403.1633      303          
   1931000   326.63494     -1391.6871      303          
   1932000   296.53494     -1394.802       303          
   1933000   346.63659     -1373.3414      303          
   1934000   279.95397     -1408.0528      303          
   1935000   256.81998     -1404.0803      303          
   1936000   295.40968     -1402.5779      303          
   1937000   294.46824     -1396.1163      303          
   1938000   305.02331     -1400.2308      303          
   1939000   286.05388     -1399.8474      303          
   1940000   357.84344     -1364.5443      303          
   1941000   315.42689     -1397.1278      303          
   1942000   263.75744     -1398.6108      303          
   1943000   330.65358     -1383.6023      303          
   1944000   297.69013     -1399.8914      303          
   1945000   275.17942     -1408.0774      303          
   1946000   274.62174     -1396.6229      303          
   1947000   334.89468     -1388.6932      303          
   1948000   300.16211     -1395.4743      303          
   1949000   336.30537     -1388.3728      303          
   1950000   342.92105     -1373.1765      303          
   1951000   288.62591     -1405.0351      303          
   1952000   346.97154     -1365.6852      303          
   1953000   291.99582     -1403.9543      303          
   1954000   268.61806     -1401.3592      303          
   1955000   327.1851      -1382.9081      303          
   1956000   295.77721     -1397.4687      303          
   1957000   341.57161     -1380.7098      303          
   1958000   285.83683     -1405.1997      303          
   1959000   262.44867     -1410.2172      303          
   1960000   309.51701     -1398.0923      303          
   1961000   320.66242     -1382.5889      303          
   1962000   310.40329     -1390.6408      303          
   1963000   289.07765     -1400.7759      303          
   1964000   302.82346     -1402.2785      303          
   1965000   342.15437     -1378.3039      303          
   1966000   287.59924     -1399.7457      303          
   1967000   318.238       -1376.3515      303          
   1968000   288.53171     -1403.1118      303          
   1969000   277.10355     -1396.558       303          
   1970000   296.33541     -1397.4159      303          
   1971000   302.08225     -1394.24        303          
   1972000   308.41124     -1389.2883      303          
   1973000   282.17368     -1404.2434      303          
   1974000   296.88331     -1396.0572      303          
   1975000   298.07869     -1394.8662      303          
   1976000   321.15155     -1391.6963      303          
   1977000   294.02423     -1407.7038      303          
   1978000   330.70878     -1377.8112      303          
   1979000   288.39268     -1404.4674      303          
   1980000   293.78905     -1398.3322      303          
   1981000   295.10909     -1390.4019      303          
   1982000   302.86976     -1402.1118      303          
   1983000   312.63032     -1386.5209      303          
   1984000   282.30227     -1400.1469      303          
   1985000   322.12872     -1383.2079      303          
   1986000   341.94021     -1380.3622      303          
   1987000   332.4427      -1387.5265      303          
   1988000   323.89555     -1387.9554      303          
   1989000   261.2838      -1412.6308      303          
   1990000   321.08738     -1392.3587      303          
   1991000   346.54946     -1382.3816      303          
   1992000   328.90835     -1391.0407      303          
   1993000   290.26165     -1400.3605      303          
   1994000   274.97112     -1407.9895      303          
   1995000   313.79491     -1385.645       303          
   1996000   290.80265     -1395.0453      303          
   1997000   273.79413     -1401.9062      303          
   1998000   332.55933     -1384.4074      303          
   1999000   299.62517     -1393.0547      303          
   2000000   293.77612     -1398.0925      303          
   2001000   322.7855      -1385.0214      303          
   2002000   290.43479     -1405.1962      303          
   2003000   329.47904     -1384.2672      303          
   2004000   270.63061     -1398.3821      303          
   2005000   331.10826     -1385.6465      303          
   2006000   284.61169     -1404.5411      303          
   2007000   275.81328     -1406.4499      303          
   2008000   312.06838     -1383.5817      303          
   2009000   277.98496     -1409.2391      303          
   2010000   298.04815     -1388.6502      303          
   2011000   283.63266     -1405.1607      303          
   2012000   317.29213     -1382.0556      303          
   2013000   293.69481     -1399.4332      303          
   2014000   313.23444     -1389.2126      303          
   2015000   288.21454     -1391.3967      303          
   2016000   322.08253     -1391.1718      303          
   2017000   329.32269     -1388.8711      303          
   2018000   329.55813     -1381.6817      303          
   2019000   290.09149     -1397.3269      303          
   2020000   325.18592     -1386.0234      303          
   2021000   293.21        -1394.2737      303          
   2022000   329.17187     -1379.3033      303          
   2023000   338.18949     -1385.4927      303          
   2024000   287.57692     -1408.4555      303          
   2025000   316.32061     -1384.0976      303          
   2026000   286.70528     -1403.5535      303          
   2027000   342.27836     -1377.7411      303          
   2028000   353.1537      -1378.6934      303          
   2029000   306.37958     -1387.4764      303          
   2030000   273.82591     -1410.8458      303          
   2031000   300.68231     -1389.4123      303          
   2032000   280.71652     -1400.5821      303          
   2033000   277.89831     -1397.8762      303          
   2034000   273.88569     -1411.3849      303          
   2035000   266.1239      -1408.162       303          
   2036000   346.15518     -1382.7517      303          
   2037000   301.34792     -1388.755       303          
   2038000   316.16098     -1396.6985      303          
   2039000   320.32333     -1379.2697      303          
   2040000   320.33167     -1387.1385      303          
   2041000   289.82637     -1403.1128      303          
   2042000   324.33112     -1390.3559      303          
   2043000   300.15055     -1392.7682      303          
   2044000   309.89323     -1392.1249      303          
   2045000   269.49471     -1413.0717      303          
   2046000   299.15325     -1396.5301      303          
   2047000   296.34252     -1391.3153      303          
   2048000   313.20156     -1387.6107      303          
   2049000   283.18587     -1404.6187      303          
   2050000   287.67916     -1384.21        303          
   2051000   308.02404     -1394.6777      303          
   2052000   287.87895     -1397.6648      303          
   2053000   293.98922     -1393.294       303          
   2054000   312.16413     -1394.1514      303          
   2055000   299.06169     -1390.1792      303          
   2056000   325.182       -1385.4711      303          
   2057000   257.91858     -1411.1362      303          
   2058000   333.19453     -1389.0053      303          
   2059000   267.6906      -1402.0703      303          
   2060000   272.30845     -1409.071       303          
   2061000   300.79849     -1381.7805      303          
   2062000   271.36621     -1397.1241      303          
   2063000   318.83346     -1383.5658      303          
   2064000   259.94672     -1413.6731      303          
   2065000   345.70781     -1375.4411      303          
   2066000   318.36155     -1394.6403      303          
   2067000   329.22238     -1376.5438      303          
   2068000   277.09218     -1403.7192      303          
   2069000   295.6923      -1389.1282      303          
   2070000   318.11208     -1380.3438      303          
   2071000   282.89152     -1400.7798      303          
   2072000   312.45587     -1381.5384      303          
   2073000   309.74283     -1393.7645      303          
   2074000   261.17602     -1409.2164      303          
   2075000   341.47055     -1376.6627      303          
   2076000   309.13028     -1397.394       303          
   2077000   296.5204      -1383.1869      303          
   2078000   318.41066     -1386.4641      303          
   2079000   266.96364     -1405.8855      303          
   2080000   313.76836     -1385.3144      303          
   2081000   285.22717     -1404.5476      303          
   2082000   271.07925     -1407.3127      303          
   2083000   304.76388     -1389.818       303          
   2084000   273.2702      -1405.0093      303          
   2085000   318.7443      -1382.5229      303          
   2086000   299.79306     -1400.6157      303          
   2087000   328.58017     -1383.5784      303          
   2088000   315.70852     -1381.206       303          
   2089000   276.85691     -1398.7253      303          
   2090000   328.20721     -1379.589       303          
   2091000   298.35403     -1399.597       303          
   2092000   282.18637     -1402.8695      303          
   2093000   299.63678     -1394.7844      303          
   2094000   314.23017     -1396.2742      303          
   2095000   328.01609     -1374.3343      303          
   2096000   292.63482     -1398.7295      303          
   2097000   351.05214     -1378.3256      303          
   2098000   312.11897     -1393.6959      303          
   2099000   313.54117     -1387.1161      303          
   2100000   334.31017     -1376.0711      303          
   2101000   292.78512     -1401.2967      303          
   2102000   332.84514     -1377.863       303          
   2103000   296.88126     -1397.4195      303          
   2104000   297.79343     -1393.3811      303          
   2105000   314.76166     -1396.2476      303          
   2106000   323.55572     -1379.8236      303          
   2107000   312.65411     -1392.0263      303          
   2108000   249.39747     -1417.5884      303          
   2109000   280.82397     -1402.9048      303          
   2110000   292.06703     -1395.5321      303          
   2111000   325.34898     -1378.6311      303          
   2112000   329.52208     -1390.6691      303          
   2113000   277.01504     -1403.0663      303          
   2114000   305.76388     -1387.1135      303          
   2115000   280.80122     -1403.998       303          
   2116000   294.19381     -1392.6282      303          
   2117000   306.00307     -1395.0544      303          
   2118000   273.38389     -1410.0932      303          
   2119000   305.76891     -1389.3342      303          
   2120000   315.32999     -1382.802       303          
   2121000   304.16428     -1396.2054      303          
   2122000   290.50293     -1399.4652      303          
   2123000   305.24508     -1389.7333      303          
   2124000   326.91771     -1379.1076      303          
   2125000   280.12613     -1413.2898      303          
   2126000   303.19444     -1394.8499      303          
   2127000   308.10596     -1394.1917      303          
   2128000   275.30637     -1395.7232      303          
   2129000   347.57744     -1383.7838      303          
   2130000   279.66535     -1408.1226      303          
   2131000   326.28628     -1386.8911      303          
   2132000   299.67984     -1394.1485      303          
   2133000   295.26108     -1397.7962      303          
   2134000   313.36106     -1394.5205      303          
   2135000   296.50128     -1391.7283      303          
   2136000   297.97385     -1398.6117      303          
   2137000   290.59183     -1391.4503      303          
   2138000   306.84425     -1393.6033      303          
   2139000   293.19949     -1391.5462      303          
   2140000   303.41566     -1402.3925      303          
   2141000   284.1376      -1402.6163      303          
   2142000   298.70675     -1394.9746      303          
   2143000   301.71372     -1391.1058      303          
   2144000   278.73386     -1402.0518      303          
   2145000   327.37751     -1381.6191      303          
   2146000   293.4807      -1393.7923      303          
   2147000   327.11567     -1384.7605      303          
   2148000   281.9548      -1401.4392      303          
   2149000   310.01278     -1390.4344      303          
   2150000   326.19406     -1376.7002      303          
   2151000   280.22489     -1405.7065      303          
   2152000   315.89582     -1382.9824      303          
   2153000   298.19484     -1391.3024      303          
   2154000   336.97431     -1379.4776      303          
   2155000   354.86055     -1374.4649      303          
   2156000   353.25395     -1374.9355      303          
   2157000   267.54476     -1408.5181      303          
   2158000   312.14511     -1383.5615      303          
   2159000   345.02062     -1377.1454      303          
   2160000   324.91114     -1388.4153      303          
   2161000   301.03039     -1397.3493      303          
   2162000   281.03431     -1402.5578      303          
   2163000   319.69897     -1389.9637      303          
   2164000   284.56406     -1402.282       303          
   2165000   298.44279     -1385.12        303          
   2166000   326.08119     -1389.8409      303          
   2167000   274.18827     -1400.3188      303          
   2168000   334.41407     -1378.4933      303          
   2169000   263.07351     -1414.7487      303          
   2170000   299.54049     -1387.6639      303          
   2171000   275.44563     -1400.3331      303          
   2172000   317.49907     -1380.5224      303          
   2173000   303.18345     -1392.458       303          
   2174000   335.59312     -1377.5641      303          
   2175000   270.99871     -1407.6562      303          
   2176000   320.03151     -1378.5478      303          
   2177000   296.93985     -1400.2177      303          
   2178000   326.75199     -1381.4689      303          
   2179000   276.24452     -1405.0839      303          
   2180000   325.93677     -1377.2498      303          
   2181000   281.12672     -1400.5327      303          
   2182000   288.67722     -1396.4078      303          
   2183000   294.82207     -1394.5856      303          
   2184000   309.83687     -1395.3871      303          
   2185000   277.42666     -1398.2304      303          
   2186000   340.33358     -1387.1707      303          
   2187000   293.34856     -1398.8107      303          
   2188000   307.94054     -1389.2669      303          
   2189000   322.46205     -1387.7314      303          
   2190000   321.3243      -1386.6551      303          
   2191000   292.63216     -1397.5333      303          
   2192000   280.3228      -1403.185       303          
   2193000   309.71866     -1391.0394      303          
   2194000   262.24569     -1414.635       303          
   2195000   355.73002     -1373.6449      303          
   2196000   297.69311     -1402.9614      303          
   2197000   309.91207     -1395.0647      303          
   2198000   324.03173     -1378.7572      303          
   2199000   265.52021     -1410.3497      303          
   2200000   294.32612     -1393.0613      303          
   2201000   311.65898     -1392.0941      303          
   2202000   298.86569     -1397.1381      303          
   2203000   302.4244      -1394.0238      303          
   2204000   293.28847     -1387.5577      303          
   2205000   320.2095      -1382.1805      303          
   2206000   318.65968     -1385.3129      303          
   2207000   303.24736     -1397.2345      303          
   2208000   271.89303     -1407.8206      303          
   2209000   337.76196     -1373.0295      303          
   2210000   333.47439     -1384.9879      303          
   2211000   295.81476     -1396.0272      303          
   2212000   354.44107     -1377.3223      303          
   2213000   278.208       -1404.1531      303          
   2214000   316.58083     -1370.5941      303          
   2215000   312.26705     -1394.8979      303          
   2216000   297.40675     -1396.4148      303          
   2217000   283.4359      -1402.2403      303          
   2218000   321.6999      -1386.8732      303          
   2219000   304.21557     -1385.3918      303          
   2220000   307.0015      -1400.7099      303          
   2221000   321.90496     -1379.6286      303          
   2222000   295.02317     -1398.1773      303          
   2223000   337.19145     -1380.0922      303          
   2224000   304.79246     -1395.2035      303          
   2225000   322.12006     -1380.6138      303          
   2226000   292.59301     -1399.2646      303          
   2227000   359.02343     -1376.0568      303          
   2228000   315.30827     -1383.4723      303          
   2229000   286.91673     -1399.6461      303          
   2230000   320.93926     -1384.4975      303          
   2231000   271.88256     -1407.8046      303          
   2232000   295.88513     -1385.3168      303          
   2233000   312.2142      -1383.421       303          
   2234000   301.43073     -1398.3517      303          
   2235000   284.1991      -1403.0462      303          
   2236000   306.10623     -1393.5613      303          
   2237000   280.7892      -1402.5319      303          
   2238000   314.98309     -1378.2853      303          
   2239000   274.61104     -1414.0306      303          
   2240000   288.83839     -1401.5484      303          
   2241000   265.52961     -1410.9272      303          
   2242000   326.80806     -1377.0066      303          
   2243000   295.73239     -1399.1106      303          
   2244000   322.42109     -1385.1957      303          
   2245000   293.75381     -1397.8153      303          
   2246000   306.48782     -1389.0792      303          
   2247000   319.6873      -1391.7674      303          
   2248000   347.78738     -1372.7872      303          
   2249000   282.33987     -1399.9509      303          
   2250000   377.67427     -1362.0924      303          
   2251000   307.90152     -1396.1008      303          
   2252000   296.5803      -1399.5106      303          
   2253000   355.73045     -1374.1374      303          
   2254000   341.55306     -1378.5338      303          
   2255000   298.39204     -1392.8902      303          
   2256000   323.70839     -1389.2964      303          
   2257000   286.7212      -1406.727       303          
   2258000   305.18934     -1385.6935      303          
   2259000   293.82067     -1392.4042      303          
   2260000   301.64972     -1390.9809      303          
   2261000   307.04393     -1387.9849      303          
   2262000   321.47305     -1385.8405      303          
   2263000   279.58481     -1408.0113      303          
   2264000   354.62918     -1373.9098      303          
   2265000   298.08007     -1405.0911      303          
   2266000   291.05762     -1399.3088      303          
   2267000   320.68777     -1379.6505      303          
   2268000   299.89126     -1399.3288      303          
   2269000   269.56947     -1407.5933      303          
   2270000   292.15868     -1400.2129      303          
   2271000   279.55339     -1399.5806      303          
   2272000   348.748       -1375.4565      303          
   2273000   304.36164     -1386.5523      303          
   2274000   287.42407     -1387.0916      303          
   2275000   332.00852     -1380.4185      303          
   2276000   276.43834     -1390.7265      303          
   2277000   300.03516     -1389.1853      303          
   2278000   306.47931     -1383.6554      303          
   2279000   277.40885     -1406.2476      303          
   2280000   317.27426     -1384.9681      303          
   2281000   339.75773     -1381.6965      303          
   2282000   298.80376     -1391.5734      303          
   2283000   325.24519     -1381.9026      303          
   2284000   317.03803     -1392.2038      303          
   2285000   296.94796     -1397.3542      303          
   2286000   332.26345     -1375.6609      303          
   2287000   311.21346     -1388.2357      303          
   2288000   289.29368     -1405.0108      303          
   2289000   285.33049     -1400.4179      303          
   2290000   310.51442     -1385.9777      303          
   2291000   314.7878      -1386.3108      303          
   2292000   316.09442     -1396.1216      303          
   2293000   299.81849     -1383.3075      303          
   2294000   364.28583     -1374.4368      303          
   2295000   294.86625     -1403.5065      303          
   2296000   285.42162     -1399.4556      303          
   2297000   305.29496     -1387.3429      303          
   2298000   296.78761     -1399.3382      303          
   2299000   326.61974     -1386.9324      303          
   2300000   302.05499     -1387.7042      303          
   2301000   278.01326     -1404.0234      303          
   2302000   299.49128     -1391.0551      303          
   2303000   342.0724      -1386.0834      303          
   2304000   300.11233     -1400.3507      303          
   2305000   275.05687     -1402.8658      303          
   2306000   332.66674     -1371.5551      303          
   2307000   304.08426     -1389.8372      303          
   2308000   320.86747     -1382.6179      303          
   2309000   293.43386     -1404.9814      303          
   2310000   339.39413     -1373.2228      303          
   2311000   332.62926     -1390.403       303          
   2312000   305.87266     -1400.072       303          
   2313000   305.5732      -1389.244       303          
   2314000   317.28884     -1388.8171      303          
   2315000   310.31619     -1385.5971      303          
   2316000   286.17273     -1399.0069      303          
   2317000   291.11079     -1397.4039      303          
   2318000   338.37913     -1380.8977      303          
   2319000   271.53793     -1406.4698      303          
   2320000   295.11904     -1401.2026      303          
   2321000   333.81084     -1370.9823      303          
   2322000   302.97625     -1393.9381      303          
   2323000   325.98456     -1390.1514      303          
   2324000   284.2654      -1406.3083      303          
   2325000   290.81385     -1397.736       303          
   2326000   324.82279     -1386.6499      303          
   2327000   272.32021     -1397.954       303          
   2328000   344.51304     -1376.707       303          
   2329000   310.95818     -1400.9918      303          
   2330000   279.68464     -1407.2365      303          
   2331000   277.7378      -1402.5294      303          
   2332000   320.23916     -1384.6043      303          
   2333000   313.42973     -1393.3167      303          
   2334000   336.33654     -1380.8683      303          
   2335000   302.03937     -1401.8944      303          
   2336000   295.27285     -1395.3489      303          
   2337000   330.93859     -1373.2203      303          
   2338000   297.74847     -1399.5133      303          
   2339000   312.66        -1387.4231      303          
   2340000   290.18099     -1399.1447      303          
   2341000   309.02168     -1385.7432      303          
   2342000   284.24216     -1404.4828      303          
   2343000   315.05378     -1389.2734      303          
   2344000   333.06733     -1384.5116      303          
   2345000   291.36379     -1402.7025      303          
   2346000   305.28005     -1389.0678      303          
   2347000   280.19571     -1405.1554      303          
   2348000   296.18139     -1390.4371      303          
   2349000   273.06382     -1404.047       303          
   2350000   293.79709     -1396.5049      303          
   2351000   283.69141     -1392.8618      303          
   2352000   273.51877     -1403.1602      303          
   2353000   346.73964     -1373.6677      303          
   2354000   288.43929     -1400.9353      303          
   2355000   323.52107     -1383.209       303          
   2356000   316.99143     -1386.3582      303          
   2357000   327.353       -1375.1194      303          
   2358000   304.91405     -1393.1139      303          
   2359000   327.26549     -1381.7217      303          
   2360000   330.62213     -1383.8046      303          
   2361000   285.87577     -1400.8553      303          
   2362000   287.12217     -1406.7337      303          
   2363000   310.28984     -1382.899       303          
   2364000   320.8378      -1390.6803      303          
   2365000   304.8388      -1400.6286      303          
   2366000   327.6017      -1387.9933      303          
   2367000   299.55732     -1397.3209      303          
   2368000   339.3193      -1384.3778      303          
   2369000   296.20129     -1402.5062      303          
   2370000   321.13517     -1381.1487      303          
   2371000   295.99572     -1399.6465      303          
   2372000   304.40518     -1394.4928      303          
   2373000   339.38629     -1377.6697      303          
   2374000   283.92705     -1397.0425      303          
   2375000   315.94364     -1383.0842      303          
   2376000   298.35692     -1397.3859      303          
   2377000   311.35255     -1378.8385      303          
   2378000   299.3789      -1396.6914      303          
   2379000   295.96706     -1384.2011      303          
   2380000   336.41291     -1371.963       303          
   2381000   276.02838     -1406.3429      303          
   2382000   317.23162     -1390.2789      303          
   2383000   301.89739     -1394.7106      303          
   2384000   315.43418     -1389.0029      303          
   2385000   281.07355     -1399.8535      303          
   2386000   325.41093     -1387.3914      303          
   2387000   291.09143     -1397.0124      303          
   2388000   337.55246     -1386.2032      303          
   2389000   277.40096     -1403.9201      303          
   2390000   295.72996     -1396.9017      303          
   2391000   299.47318     -1400.8579      303          
   2392000   298.82569     -1392.8788      303          
   2393000   345.4156      -1390.7501      303          
   2394000   303.52826     -1386.5318      303          
   2395000   280.00552     -1408.8682      303          
   2396000   311.89197     -1384.9563      303          
   2397000   284.12477     -1399.9432      303          
   2398000   313.2834      -1390.1378      303          
   2399000   279.95938     -1397.5977      303          
   2400000   322.39401     -1385.7798      303          
   2401000   277.07395     -1409.8324      303          
   2402000   298.52105     -1391.2031      303          
   2403000   309.25961     -1396.6653      303          
   2404000   299.61702     -1391.095       303          
   2405000   270.37556     -1409.4069      303          
   2406000   295.32828     -1383.9869      303          
   2407000   283.31856     -1409.2109      303          
   2408000   313.83417     -1390.9608      303          
   2409000   296.06136     -1400.8347      303          
   2410000   311.11787     -1384.4433      303          
   2411000   332.27512     -1386.8639      303          
   2412000   289.91652     -1404.899       303          
   2413000   280.63736     -1390.1587      303          
   2414000   323.5479      -1391.0868      303          
   2415000   259.35698     -1401.8759      303          
   2416000   310.84242     -1390.7052      303          
   2417000   304.75603     -1388.4112      303          
   2418000   312.0828      -1390.1062      303          
   2419000   303.33088     -1384.0375      303          
   2420000   317.05457     -1394.7339      303          
   2421000   335.26665     -1381.9426      303          
   2422000   313.1742      -1390.4677      303          
   2423000   289.5887      -1387.4029      303          
   2424000   324.27225     -1387.9045      303          
   2425000   275.2412      -1408.5148      303          
   2426000   339.00916     -1383.2526      303          
   2427000   296.70015     -1401.2771      303          
   2428000   292.18658     -1394.6861      303          
   2429000   338.77416     -1385.3035      303          
   2430000   302.85524     -1399.2921      303          
   2431000   328.38948     -1384.1625      303          
   2432000   263.045       -1413.6019      303          
   2433000   300.81535     -1395.2292      303          
   2434000   350.66552     -1382.5698      303          
   2435000   252.10184     -1406.1205      303          
   2436000   347.02831     -1369.9477      303          
   2437000   314.36287     -1391.691       303          
   2438000   290.86869     -1406.6419      303          
   2439000   295.21876     -1393.5912      303          
   2440000   277.63427     -1398.8478      303          
   2441000   291.34984     -1392.618       303          
   2442000   347.08503     -1375.8985      303          
   2443000   324.19797     -1386.1234      303          
   2444000   339.47946     -1378.1627      303          
   2445000   321.13861     -1389.5413      303          
   2446000   283.99454     -1407.7253      303          
   2447000   279.08645     -1403.5897      303          
   2448000   296.0596      -1389.3736      303          
   2449000   284.67906     -1408.1986      303          
   2450000   294.58022     -1392.541       303          
   2451000   296.81532     -1397.513       303          
   2452000   284.75459     -1392.8654      303          
   2453000   335.93882     -1385.1991      303          
   2454000   275.2357      -1401.0605      303          
   2455000   272.21714     -1407.5425      303          
   2456000   314.14752     -1385.2863      303          
   2457000   319.33664     -1388.22        303          
   2458000   284.86682     -1402.7386      303          
   2459000   314.14264     -1386.0172      303          
   2460000   297.72798     -1409.4698      303          
   2461000   312.57006     -1388.9348      303          
   2462000   314.74826     -1397.9354      303          
   2463000   321.01425     -1387.2504      303          
   2464000   309.35847     -1396.797       303          
   2465000   338.37558     -1384.1097      303          
   2466000   290.66558     -1399.6624      303          
   2467000   263.09855     -1413.0149      303          
   2468000   309.46151     -1393.576       303          
   2469000   343.11669     -1388.6752      303          
   2470000   286.93586     -1396.7968      303          
   2471000   331.3783      -1383.4525      303          
   2472000   293.25285     -1403.7384      303          
   2473000   313.16964     -1388.0179      303          
   2474000   249.98506     -1415.7298      303          
   2475000   332.77851     -1389.4881      303          
   2476000   292.04275     -1394.8227      303          
   2477000   328.04877     -1383.6194      303          
   2478000   297.4964      -1398.3092      303          
   2479000   299.52913     -1392.4396      303          
   2480000   336.74825     -1382.9286      303          
   2481000   264.30337     -1410.8205      303          
   2482000   303.46538     -1389.2161      303          
   2483000   324.33464     -1384.8901      303          
   2484000   274.01208     -1415.1777      303          
   2485000   301.33325     -1393.6999      303          
   2486000   281.66372     -1401.5182      303          
   2487000   284.70121     -1399.4918      303          
   2488000   325.91842     -1386.929       303          
   2489000   348.67356     -1370.5003      303          
   2490000   318.55393     -1391.8494      303          
   2491000   283.7658      -1399.506       303          
   2492000   323.62941     -1389.1353      303          
   2493000   333.48227     -1381.2875      303          
   2494000   303.58377     -1396.8678      303          
   2495000   260.69383     -1411.3121      303          
   2496000   304.36124     -1390.6687      303          
   2497000   260.70741     -1410.7728      303          
   2498000   293.87898     -1386.8261      303          
   2499000   271.34829     -1397.4094      303          
   2500000   299.88693     -1387.4089      303          
   2501000   336.53103     -1380.754       303          
   2502000   313.68322     -1392.2661      303          
Loop time of 17102.3 on 8 procs for 2500000 steps with 909 atoms

Performance: 12.630 ns/day, 1.900 hours/ns, 146.180 timesteps/s, 132.877 katom-step/s
799.8% CPU use with 1 MPI tasks x 8 OpenMP threads

MPI task timing breakdown:
Section |  min time  |  avg time  |  max time  |%varavg| %total
---------------------------------------------------------------
Pair    | 1545.1     | 1545.1     | 1545.1     |   0.0 |  9.03
Bond    | 32.934     | 32.934     | 32.934     |   0.0 |  0.19
Kspace  | 968.62     | 968.62     | 968.62     |   0.0 |  5.66
Neigh   | 78.186     | 78.186     | 78.186     |   0.0 |  0.46
Comm    | 134.33     | 134.33     | 134.33     |   0.0 |  0.79
Output  | 0.057017   | 0.057017   | 0.057017   |   0.0 |  0.00
Modify  | 14336      | 14336      | 14336      |   0.0 | 83.83
Other   |            | 6.592      |            |       |  0.04

Nlocal:            909 ave         909 max         909 min
Histogram: 1 0 0 0 0 0 0 0 0 0
Nghost:           7775 ave        7775 max        7775 min
Histogram: 1 0 0 0 0 0 0 0 0 0
Neighs:         303643 ave      303643 max      303643 min
Histogram: 1 0 0 0 0 0 0 0 0 0

Total # of neighbors = 303643
Ave neighs/atom = 334.0407
Ave special neighs/atom = 2
Neighbor list builds = 2550030
Dangerous builds = 0
Total wall time: 4:45:02
