LAMMPS (27 Jun 2024)
  using 8 OpenMP thread(s) per MPI task
package omp 0
using multi-threaded neighbor list subroutines
# LAMMPS input script by Simon Gravelle
# For LAMMPS tutorials, see https://lammpstutorials.github.io
# Last tested using the 27Jun2024 LAMMPS version

variable Nstep equal 2500000
variable mu_K equal -3800
variable mu_kcal_mol equal ${mu_K}*0.0019872041
variable mu_kcal_mol equal -3800*0.0019872041
print "mu equal ${mu_kcal_mol}"
mu equal -7.55137558
variable tfac equal 5.0/3.0
variable Nattempt equal 100

units real
boundary p p p
atom_style full
pair_style lj/cut/coul/long 12
kspace_style ewald 1.0e-5
bond_style harmonic
angle_style harmonic
pair_modify mix geometric
special_bonds lj 0.0 0.0 0.0 coul 0.0 0.0 0.0 angle yes

read_data box.data
Reading data file ...
  orthogonal box = (-12.5 -12.5 -12.5) to (12.5 12.5 12.5)
  1 by 1 by 1 MPI processor grid
  reading atom labelmap ...
  reading bond labelmap ...
  reading angle labelmap ...
  reading atoms ...
  150 atoms
  reading velocities ...
  150 velocities
  scanning bonds ...
  1 = max bonds/atom
  scanning angles ...
  1 = max angles/atom
  orthogonal box = (-12.5 -12.5 -12.5) to (12.5 12.5 12.5)
  1 by 1 by 1 MPI processor grid
  reading bonds ...
  100 bonds
  reading angles ...
  50 angles
Finding 1-2 1-3 1-4 neighbors ...
  special bond factors lj:    0        0        0       
  special bond factors coul:  0        0        0       
     2 = max # of 1-2 neighbors
     1 = max # of 1-3 neighbors
     1 = max # of 1-4 neighbors
  100 = # of 1-3 neighbors before angle trim
  100 = # of 1-3 neighbors after angle trim
     2 = max # of special neighbors
  special bonds CPU = 0.000 seconds
  read_data CPU = 0.014 seconds
labelmap atom 1 O 2 C
labelmap bond 1 C-O
labelmap angle 1 O-C-O

group CO2 type C O
150 atoms in group CO2
include parm.lmp
# LAMMPS parameter file for H2O SPCE water model
# For conversion from K to kcal / mol, multiply
# by Boltzmann = 0.0019872041 kcal / (mol * K)

mass O 15.9994
mass C 12.0110

pair_coeff O O 0.164858 3.011
pair_coeff C C 0.05894 2.789

bond_coeff C-O 0.0 1.18 # rigid

angle_coeff O-C-O 0.0 180.0 # rigid

molecule CO2mol CO2.mol
Read molecule template CO2mol:
# LAMMPS molecule file for carbondioxide
  1 molecules
  0 fragments
  3 atoms with max type 2
  2 bonds with max type 1
  1 angles with max type 1
  0 dihedrals with max type 0
  0 impropers with max type 0

fix mynvt CO2 rigid/nvt/small molecule temp 300 300 100 mol CO2mol
  create bodies CPU = 0.000 seconds
  50 rigid bodies with 150 atoms
  1.18 = max distance from body owner to body atom
thermo 1000

run 2000

CITE-CITE-CITE-CITE-CITE-CITE-CITE-CITE-CITE-CITE-CITE-CITE-CITE

Your simulation uses code contributions which should be cited:

- Type Label Framework: https://doi.org/10.1021/acs.jpcb.3c08419

@Article{Gissinger24,
 author = {Jacob R. Gissinger, Ilia Nikiforov, Yaser Afshar, Brendon Waters, Moon-ki Choi, Daniel S. Karls, Alexander Stukowski, Wonpil Im, Hendrik Heinz, Axel Kohlmeyer, and Ellad B. Tadmor},
 title = {Type Label Framework for Bonded Force Fields in LAMMPS},
 journal = {J. Phys. Chem. B},
 year =    2024,
 volume =  128,
 number =  13,
 pages =   {3282â€“-3297}
}

CITE-CITE-CITE-CITE-CITE-CITE-CITE-CITE-CITE-CITE-CITE-CITE-CITE

Ewald initialization ...
  using 12-bit tables for long-range coulomb (src/kspace.cpp:342)
  G vector (1/distance) = 0.21801154
  estimated absolute RMS force accuracy = 0.0034006373
  estimated relative force accuracy = 1.0240918e-05
  KSpace vectors: actual max1d max3d = 257 5 665
                  kxmax kymax kzmax  = 5 5 5
Generated 1 of 1 mixed pair_coeff terms from geometric mixing rule
Last active /omp style is kspace_style ewald/omp
Neighbor list info ...
  update: every = 1 steps, delay = 0 steps, check = yes
  max neighbors/atom: 2000, page size: 100000
  master list distance cutoff = 14
  ghost atom cutoff = 14
  binsize = 7, bins = 4 4 4
  1 neighbor lists, perpetual/occasional/extra = 1 0 0
  (1) pair lj/cut/coul/long/omp, perpetual
      attributes: half, newton on, omp
      pair build: half/bin/newton/omp
      stencil: half/bin/3d
      bin: standard
Per MPI rank memory allocation (min/avg/max) = 26.82 | 26.82 | 26.82 Mbytes
   Step          Temp          E_pair         E_mol          TotEng         Press     
         0   0             -24.115729      0             -24.115729     -139.61173    
      1000   270.80748     -28.024535      0              38.437043      69.359993    
      2000   302.41636     -29.459348      0              44.759684      89.86941     
Loop time of 0.342194 on 8 procs for 2000 steps with 150 atoms

Performance: 504.977 ns/day, 0.048 hours/ns, 5844.646 timesteps/s, 876.697 katom-step/s
795.3% CPU use with 1 MPI tasks x 8 OpenMP threads

MPI task timing breakdown:
Section |  min time  |  avg time  |  max time  |%varavg| %total
---------------------------------------------------------------
Pair    | 0.029359   | 0.029359   | 0.029359   |   0.0 |  8.58
Bond    | 0.009415   | 0.009415   | 0.009415   |   0.0 |  2.75
Kspace  | 0.16669    | 0.16669    | 0.16669    |   0.0 | 48.71
Neigh   | 0.0015986  | 0.0015986  | 0.0015986  |   0.0 |  0.47
Comm    | 0.01368    | 0.01368    | 0.01368    |   0.0 |  4.00
Output  | 2.2933e-05 | 2.2933e-05 | 2.2933e-05 |   0.0 |  0.01
Modify  | 0.12027    | 0.12027    | 0.12027    |   0.0 | 35.15
Other   |            | 0.001151   |            |       |  0.34

Nlocal:            150 ave         150 max         150 min
Histogram: 1 0 0 0 0 0 0 0 0 0
Nghost:           1372 ave        1372 max        1372 min
Histogram: 1 0 0 0 0 0 0 0 0 0
Neighs:           8049 ave        8049 max        8049 min
Histogram: 1 0 0 0 0 0 0 0 0 0

Total # of neighbors = 8049
Ave neighs/atom = 53.66
Ave special neighs/atom = 2
Neighbor list builds = 20
Dangerous builds = 0

fix fgcmc CO2 gcmc 100 ${Nattempt} 0 0 25899 300 ${mu_kcal_mol} 0.1     mol CO2mol tfac_insert ${tfac} full_energy rigid mynvt
fix fgcmc CO2 gcmc 100 100 0 0 25899 300 ${mu_kcal_mol} 0.1     mol CO2mol tfac_insert ${tfac} full_energy rigid mynvt
fix fgcmc CO2 gcmc 100 100 0 0 25899 300 -7.55137558 0.1     mol CO2mol tfac_insert ${tfac} full_energy rigid mynvt
fix fgcmc CO2 gcmc 100 100 0 0 25899 300 -7.55137558 0.1     mol CO2mol tfac_insert 1.66666666666667 full_energy rigid mynvt

variable carbon atom "type==2"
group carbon dynamic all var carbon
dynamic group carbon defined
variable nC equal count(carbon)
fix myat1 all ave/time 10 10 1000 v_nC file number_CO2.dat
variable density equal v_nC*(2*15.9994+12.011)/vol/6.022e23*(1e8)^3
fix myat2 all ave/time 10 10 1000 v_density file density_CO2.dat
compute press all pressure thermo_temp
fix myat3 all ave/time 10 100 1000 c_press file pressure_CO2.dat
thermo_style custom step temp etotal v_nC

run ${Nstep}
run 2500000
Ewald initialization ...
  using 12-bit tables for long-range coulomb (src/kspace.cpp:342)
  G vector (1/distance) = 0.21801154
  estimated absolute RMS force accuracy = 0.0034006373
  estimated relative force accuracy = 1.0240918e-05
  KSpace vectors: actual max1d max3d = 257 5 665
                  kxmax kymax kzmax  = 5 5 5
Generated 1 of 1 mixed pair_coeff terms from geometric mixing rule
Last active /omp style is kspace_style ewald/omp
0 atoms in group FixGCMC:gcmc_exclusion_group:fgcmc
0 atoms in group FixGCMC:rotation_gas_atoms:fgcmc
WARNING: Neighbor exclusions used with KSpace solver may give inconsistent Coulombic energies (src/neighbor.cpp:658)
Per MPI rank memory allocation (min/avg/max) = 26.82 | 26.82 | 26.82 Mbytes
   Step          Temp          TotEng          v_nC     
      2000   302.41636      44.759684      50           
      3000   226.71631      43.354948      29           
      4000   235.59524      51.61073       22           
      5000   164.54094      37.166556      17           
      6000   181.26469      37.587523      21           
      7000   137.73187      32.590207      12           
      8000   192.38015      39.592993      23           
      9000   172.271        38.651146      18           
     10000   200.85427      40.411766      25           
     11000   129.5277       26.475102      17           
     12000   166.1932       37.312907      17           
     13000   77.830381      16.664016      9            
     14000   163.86993      32.374186      24           
     15000   220.44705      47.032021      22           
     16000   129.95097      30.178136      13           
     17000   150.95137      35.38032       15           
     18000   128.77406      29.330548      19           
     19000   206.19034      43.894474      23           
     20000   166.91722      34.717587      19           
     21000   147.1652       32.213211      22           
     22000   171.92645      30.003981      30           
     23000   187.69214      37.365495      23           
     24000   234.94054      50.788665      22           
     25000   147.14459      31.815324      21           
     26000   126.89285      29.19263       13           
     27000   136.83087      27.82504       19           
     28000   209.59407      42.420259      28           
     29000   145.40538      30.486693      16           
     30000   149.11983      34.787877      14           
     31000   215.48063      45.109668      22           
     32000   169.63323      33.960809      21           
     33000   145.06808      33.764548      12           
     34000   176.32683      37.044114      17           
     35000   205.52775      40.055005      27           
     36000   195.39021      42.909368      19           
     37000   212.28621      42.991176      23           
     38000   190.51451      40.950718      23           
     39000   78.324305      18.665464      9            
     40000   135.05434      30.867778      16           
     41000   177.35052      36.847703      20           
     42000   181.27885      32.827972      27           
     43000   244.38705      52.485311      22           
     44000   150.70364      33.374855      17           
     45000   226.25973      45.680458      25           
     46000   280.26157      44.563804      39           
     47000   182.42236      37.192664      23           
     48000   165.28373      35.823058      18           
     49000   145.78393      31.16559       18           
     50000   124.49426      27.101984      17           
     51000   203.60213      39.71681       27           
     52000   146.37544      29.929083      15           
     53000   226.63038      48.177066      27           
     54000   196.8079       41.540255      21           
     55000   223.46179      40.350759      30           
     56000   106.63484      23.266333      12           
     57000   225.95405      46.013014      28           
     58000   144.6791       30.244153      20           
     59000   151.40009      34.769747      18           
     60000   178.81823      39.465145      21           
     61000   207.53714      41.100303      28           
     62000   204.48693      40.514399      23           
     63000   95.109282      21.683068      15           
     64000   156.34485      33.526715      14           
     65000   121.08369      25.772432      19           
     66000   202.58501      44.785356      19           
     67000   213.96961      43.272492      28           
     68000   172.25516      39.582572      20           
     69000   81.348048      16.91202       9            
     70000   188.88021      36.978392      28           
     71000   183.57039      38.207415      19           
     72000   128.31123      26.600104      17           
     73000   96.087408      21.570388      11           
     74000   157.95922      35.916637      20           
     75000   110.42441      25.345447      16           
     76000   188.60377      37.609625      22           
     77000   187.35553      37.923964      25           
     78000   181.08278      34.21396       25           
     79000   128.28237      29.700753      12           
     80000   216.80585      45.792078      23           
     81000   263.84772      49.675218      31           
     82000   122.11139      25.846789      18           
     83000   236.28703      41.956722      36           
     84000   216.06934      43.555698      24           
     85000   160.29974      35.050571      20           
     86000   160.79249      37.263476      18           
     87000   132.04158      29.352263      14           
     88000   207.98041      43.134074      25           
     89000   195.53333      41.033272      28           
     90000   225.18818      48.614162      21           
     91000   155.26416      33.226165      20           
     92000   143.75791      30.888506      16           
     93000   196.13301      42.719045      27           
     94000   205.67098      37.297688      34           
     95000   148.29398      34.90116       13           
     96000   190.48215      33.551729      29           
     97000   160.4319       38.490188      16           
     98000   183.30899      34.696591      28           
     99000   184.09728      35.411529      24           
    100000   225.71575      46.234595      28           
    101000   180.30972      38.547115      23           
    102000   185.87334      35.961627      25           
    103000   298.49387      63.03557       24           
    104000   232.93505      43.180734      32           
    105000   139.35682      30.68974       19           
    106000   212.90841      46.926034      26           
    107000   129.77867      29.112793      12           
    108000   196.4444       39.3472        26           
    109000   220.48865      42.677809      30           
    110000   130.09293      28.644984      13           
    111000   228.40293      44.926699      29           
    112000   182.07513      37.630867      23           
    113000   160.92158      32.208007      20           
    114000   176.06971      36.699154      22           
    115000   164.84262      35.391918      20           
    116000   162.21554      34.900111      20           
    117000   190.81435      41.306316      18           
    118000   178.89159      39.577146      19           
    119000   185.73882      34.325517      28           
    120000   179.47029      36.574045      25           
    121000   178.08332      40.456299      16           
    122000   151.12605      32.779701      15           
    123000   198.81992      41.360182      20           
    124000   175.82631      39.041041      17           
    125000   252.23239      49.409967      26           
    126000   184.75235      37.841156      23           
    127000   214.76955      44.747748      28           
    128000   213.2883       46.558491      25           
    129000   196.7201       43.626392      20           
    130000   166.36998      34.712096      22           
    131000   160.38073      32.33214       22           
    132000   137.85149      29.427262      20           
    133000   170.80772      38.522167      21           
    134000   218.02304      41.193598      30           
    135000   221.42961      44.885286      31           
    136000   201.24989      44.445051      20           
    137000   211.45001      43.287928      23           
    138000   198.61878      42.182684      26           
    139000   147.00283      32.039462      21           
    140000   168.55045      40.066272      15           
    141000   231.5219       47.545008      26           
    142000   201.1092       39.787143      22           
    143000   198.47379      40.743301      22           
    144000   187.19654      41.230274      24           
    145000   222.16204      47.454527      24           
    146000   233.08735      41.371207      34           
    147000   168.3821       38.079119      17           
    148000   220.87541      40.587637      34           
    149000   133.16314      29.540837      16           
    150000   201.84799      41.141936      27           
    151000   184.63665      37.191185      20           
    152000   211.26934      40.727892      28           
    153000   203.59781      32.252509      34           
    154000   214.40372      44.552487      22           
    155000   122.64653      28.107607      14           
    156000   121.5611       27.919904      16           
    157000   161.5447       35.603397      16           
    158000   111.03112      22.884536      12           
    159000   104.69179      23.332193      15           
    160000   171.28291      37.08545       23           
    161000   251.97575      53.652334      27           
    162000   116.12989      26.781339      16           
    163000   197.463        43.541439      23           
    164000   189.73297      40.220722      26           
    165000   138.1317       30.675871      16           
    166000   167.67262      38.688472      16           
    167000   145.73774      33.80758       13           
    168000   177.59845      39.933926      19           
    169000   193.09772      33.397         32           
    170000   173.4218       34.224384      25           
    171000   179.12467      37.78331       21           
    172000   209.57784      34.412178      28           
    173000   176.29161      36.890088      15           
    174000   150.67868      33.792557      15           
    175000   249.47122      45.072085      32           
    176000   201.02308      36.398221      30           
    177000   181.33896      34.141352      21           
    178000   144.10509      32.769671      17           
    179000   159.03833      38.079348      14           
    180000   199.74368      44.288178      22           
    181000   210.13571      45.330474      22           
    182000   169.41466      38.969613      14           
    183000   145.79795      32.512957      17           
    184000   161.431        39.063875      12           
    185000   268.66721      53.771704      31           
    186000   204.38778      46.452559      21           
    187000   121.42184      28.073683      14           
    188000   150.70957      33.387987      18           
    189000   121.65892      27.928182      16           
    190000   83.942629      19.714295      9            
    191000   184.89436      41.704105      16           
    192000   209.15062      41.816986      24           
    193000   148.23316      33.543323      16           
    194000   186.98637      40.960412      24           
    195000   261.60514      56.128395      31           
    196000   240.7004       39.719154      39           
    197000   187.36924      41.734042      22           
    198000   209.90519      38.511288      27           
    199000   199.32876      35.492141      27           
    200000   131.99425      30.587912      14           
    201000   226.00297      48.598068      23           
    202000   193.45453      35.966395      27           
    203000   211.83262      44.064717      28           
    204000   172.08637      31.626115      28           
    205000   225.15304      45.228918      28           
    206000   170.3033       35.295431      21           
    207000   57.427763      13.227165      8            
    208000   63.591617      15.304437      7            
    209000   169.98615      36.942921      16           
    210000   144.7945       32.311347      15           
    211000   115.31436      26.513562      14           
    212000   119.9324       25.948592      15           
    213000   224.66346      39.370683      34           
    214000   52.281374      11.896747      6            
    215000   203.17373      45.32019       20           
    216000   204.65429      42.001665      26           
    217000   226.57418      47.362168      27           
    218000   241.5846       49.759603      30           
    219000   197.99643      38.865219      25           
    220000   183.89437      33.191814      28           
    221000   255.4298       51.225059      27           
    222000   173.50459      37.435666      19           
    223000   160.03711      33.799916      20           
    224000   164.36973      34.822665      19           
    225000   195.46         43.721137      28           
    226000   246.52596      45.130222      31           
    227000   136.00424      29.73075       15           
    228000   216.81904      34.541433      30           
    229000   186.82738      37.195242      23           
    230000   166.32947      31.934698      22           
    231000   308.44476      59.608061      35           
    232000   170.46846      35.52323       18           
    233000   191.73433      38.469652      25           
    234000   165.2801       29.874501      24           
    235000   208.42541      44.943265      28           
    236000   188.15803      38.878476      20           
    237000   250.18993      49.65245       30           
    238000   159.70923      35.602955      21           
    239000   187.38304      37.661585      24           
    240000   121.56207      25.242744      16           
    241000   150.80166      33.483857      20           
    242000   249.39728      41.885228      37           
    243000   266.14094      55.424741      28           
    244000   164.59708      36.595682      19           
    245000   113.19406      25.79388       10           
    246000   244.61267      46.972463      34           
    247000   212.27985      42.697735      24           
    248000   189.52536      39.435744      25           
    249000   189.60336      40.953743      19           
    250000   260.90953      46.843128      35           
    251000   281.53925      53.729011      33           
    252000   176.49603      40.863044      22           
    253000   175.093        35.457346      23           
    254000   308.66812      57.431043      37           
    255000   186.07573      43.006757      15           
    256000   189.72032      36.296339      31           
    257000   124.32879      28.43398       13           
    258000   193.2714       39.524045      17           
    259000   122.49374      28.721345      13           
    260000   203.17935      43.252875      24           
    261000   166.55387      34.925199      21           
    262000   149.51298      30.985441      19           
    263000   205.70726      44.430898      21           
    264000   235.33527      45.693913      29           
    265000   171.97067      33.532883      27           
    266000   216.18721      44.989123      27           
    267000   132.4994       30.3562        17           
    268000   160.40328      28.356365      29           
    269000   213.00731      40.141291      31           
    270000   182.83141      37.584063      23           
    271000   194.54712      39.245569      23           
    272000   229.58779      41.266021      30           
    273000   175.55285      37.206075      19           
    274000   204.20275      35.822427      32           
    275000   172.14434      35.073264      22           
    276000   111.76674      26.324766      13           
    277000   189.07824      41.473179      24           
    278000   194.87643      37.401651      23           
    279000   223.48983      43.82009       29           
    280000   147.76096      32.40891       16           
    281000   117.36904      24.300617      16           
    282000   220.42455      45.850436      26           
    283000   155.62645      32.866638      22           
    284000   248.66719      32.38594       44           
    285000   121.10315      25.802896      16           
    286000   139.68048      31.171482      17           
    287000   84.475926      19.943811      13           
    288000   156.02943      32.434431      22           
    289000   100.84202      18.739912      17           
    290000   221.52952      45.454977      26           
    291000   208.50668      42.37113       27           
    292000   216.39239      41.227617      30           
    293000   175.4155       41.262098      14           
    294000   185.54263      38.81182       22           
    295000   250.59114      47.488978      33           
    296000   204.54142      42.98916       23           
    297000   96.65662       22.016947      14           
    298000   169.13703      37.522578      20           
    299000   139.83173      30.271655      18           
    300000   218.52571      37.503694      31           
    301000   156.66528      30.5572        19           
    302000   177.86791      34.586385      24           
    303000   166.15852      24.513136      33           
    304000   165.63678      37.317966      19           
    305000   206.89394      34.009827      34           
    306000   171.1516       35.222151      22           
    307000   116.36825      25.059047      14           
    308000   205.05363      44.249627      22           
    309000   231.75338      44.426797      28           
    310000   247.69202      54.37339       21           
    311000   214.09858      42.525592      28           
    312000   131.38675      30.193223      12           
    313000   217.10486      41.111541      26           
    314000   173.45587      32.485185      25           
    315000   194.32933      43.818764      20           
    316000   170.83682      38.292607      17           
    317000   137.38975      30.107877      16           
    318000   146.27104      31.984842      17           
    319000   124.83305      23.619604      19           
    320000   164.65058      36.144988      19           
    321000   203.22637      43.787437      22           
    322000   130.93586      28.017776      17           
    323000   254.8934       37.327128      44           
    324000   179.11155      38.375953      20           
    325000   203.68691      39.834102      29           
    326000   215.27673      47.284614      21           
    327000   134.96673      28.1547        17           
    328000   181.5657       37.343239      21           
    329000   210.22092      45.078038      22           
    330000   184.2918       40.760995      23           
    331000   180.6036       38.127159      22           
    332000   136.33202      30.186611      14           
    333000   132.64396      26.596092      15           
    334000   196.57969      41.625953      23           
    335000   178.14778      39.930095      20           
    336000   197.44973      36.459038      25           
    337000   168.87229      37.548262      19           
    338000   212.45146      45.522639      22           
    339000   212.14041      44.002213      24           
    340000   134.41429      33.135582      12           
    341000   182.49202      41.194604      19           
    342000   216.18398      39.545152      28           
    343000   132.59944      26.79034       20           
    344000   147.35491      32.614263      21           
    345000   198.59135      40.775917      24           
    346000   203.31723      36.273317      33           
    347000   178.94305      39.949412      17           
    348000   209.54423      42.977141      27           
    349000   247.67665      45.640323      37           
    350000   130.83576      29.275027      12           
    351000   176.07473      39.505988      21           
    352000   157.63284      35.706748      18           
    353000   154.69978      35.909735      17           
    354000   180.87456      36.572822      23           
    355000   220.72069      45.738059      28           
    356000   203.09881      41.143617      30           
    357000   196.85274      37.881595      27           
    358000   207.8898       40.371831      27           
    359000   201.63417      42.39735       21           
    360000   133.51189      29.640781      19           
    361000   203.50049      35.264446      33           
    362000   195.23438      39.319696      22           
    363000   255.27916      54.820098      25           
    364000   191.23025      41.891882      23           
    365000   163.24766      36.427979      17           
    366000   107.3469       23.294115      15           
    367000   202.3951       43.759187      19           
    368000   159.29631      37.715771      15           
    369000   170.89718      37.119015      22           
    370000   122.73548      29.131157      11           
    371000   181.22855      38.391091      22           
    372000   201.68734      46.054889      20           
    373000   68.868175      16.491725      9            
    374000   204.52312      43.228104      24           
    375000   221.87753      28.322387      40           
    376000   199.9892       39.999987      28           
    377000   182.5003       37.592309      20           
    378000   132.29868      30.470988      12           
    379000   130.25248      28.101341      17           
    380000   265.23824      52.280464      28           
    381000   114.89006      25.163825      13           
    382000   194.79611      43.89482       19           
    383000   211.97844      44.951652      27           
    384000   101.81388      21.326584      14           
    385000   112.55399      26.565703      14           
    386000   118.86577      23.652746      17           
    387000   167.75671      31.932237      25           
    388000   77.189973      15.525255      12           
    389000   249.90739      47.227348      32           
    390000   130.57671      29.45949       16           
    391000   144.87593      33.236385      13           
    392000   188.34563      40.874361      18           
    393000   230.5724       37.687379      34           
    394000   167.8826       35.818622      15           
    395000   193.94628      38.744705      27           
    396000   229.01139      47.341995      26           
    397000   130.02405      28.480465      15           
    398000   104.8168       23.630661      17           
    399000   191.80848      43.588104      23           
    400000   194.40093      37.744509      26           
    401000   226.3287       49.031606      22           
    402000   244.88433      50.268944      25           
    403000   210.3588       41.831433      21           
    404000   167.1785       38.816512      16           
    405000   104.69642      25.559613      11           
    406000   163.81155      34.689675      21           
    407000   198.26378      36.786006      30           
    408000   132.19302      27.502053      21           
    409000   144.74149      31.663907      19           
    410000   149.09504      34.213292      16           
    411000   132.59125      27.438098      18           
    412000   79.852932      18.655734      14           
    413000   173.72847      38.866572      22           
    414000   198.11255      41.435051      23           
    415000   193.99189      42.121902      23           
    416000   230.65097      51.620994      23           
    417000   162.03923      34.43991       20           
    418000   195.91882      37.760669      31           
    419000   144.5041       35.499253      16           
    420000   163.54567      35.116341      17           
    421000   229.64297      48.719965      24           
    422000   185.81105      40.301941      23           
    423000   205.71314      43.444334      28           
    424000   214.05569      32.094115      38           
    425000   222.45514      46.136401      25           
    426000   248.53045      41.693018      35           
    427000   185.06957      37.146128      22           
    428000   124.88303      28.526055      17           
    429000   229.26863      42.230252      26           
    430000   66.711112      15.906139      10           
    431000   111.37084      23.673776      13           
    432000   141.58009      31.158961      15           
    433000   182.92136      39.28623       18           
    434000   167.73104      36.598278      20           
    435000   139.11514      30.860391      19           
    436000   189.98578      40.927006      18           
    437000   131.6089       25.878315      17           
    438000   174.3608       33.542185      27           
    439000   175.90624      38.442525      19           
    440000   146.37569      31.575627      17           
    441000   164.03426      37.470709      14           
    442000   149.36035      31.490321      20           
    443000   172.76037      33.733985      26           
    444000   163.50204      31.750985      20           
    445000   232.80286      47.739231      29           
    446000   202.97441      43.925613      18           
    447000   145.4973       30.476646      17           
    448000   173.80648      25.936892      27           
    449000   181.02727      34.866908      23           
    450000   220.24492      41.782537      28           
    451000   199.68909      47.165714      18           
    452000   188.27047      39.40762       24           
    453000   156.28663      36.61594       15           
    454000   219.68926      46.550026      24           
    455000   98.25326       22.48608       11           
    456000   242.93632      53.110599      24           
    457000   172.96596      29.531929      26           
    458000   137.39445      31.053158      18           
    459000   176.51899      37.039708      22           
    460000   183.718        40.535514      16           
    461000   114.01146      25.141235      13           
    462000   157.576        35.222083      16           
    463000   191.84357      42.118424      20           
    464000   92.541887      21.624388      14           
    465000   193.06677      36.168246      24           
    466000   143.32471      33.463104      16           
    467000   177.21618      39.018178      17           
    468000   153.08502      33.541901      18           
    469000   110.02596      24.006559      13           
    470000   166.25931      35.852243      18           
    471000   145.79444      31.842216      16           
    472000   189.02351      43.500702      15           
    473000   195.83283      42.614961      18           
    474000   132.8693       32.056649      15           
    475000   205.67436      41.303528      23           
    476000   150.39508      33.30745       15           
    477000   200.76263      41.502271      19           
    478000   136.16536      29.919071      15           
    479000   133.56287      28.185665      19           
    480000   236.86053      45.262086      28           
    481000   213.0396       37.31916       32           
    482000   168.7054       38.656507      20           
    483000   209.56443      45.605783      23           
    484000   167.75347      32.181277      20           
    485000   192.29317      41.284709      24           
    486000   192.6839       37.003276      25           
    487000   208.13853      38.909154      28           
    488000   196.21936      40.348335      22           
    489000   186.45871      38.17392       24           
    490000   259.15918      49.209275      30           
    491000   208.49437      45.858533      24           
    492000   171.00607      36.495476      20           
    493000   158.2214       37.830724      14           
    494000   141.07723      32.354111      16           
    495000   245.88412      41.314995      35           
    496000   225.93049      46.73568       29           
    497000   190.13762      39.589634      24           
    498000   181.78014      38.448556      19           
    499000   188.16363      44.056385      18           
    500000   157.06167      33.700902      16           
    501000   220.20901      48.092879      23           
    502000   207.75845      44.378519      25           
    503000   185.56808      39.506873      21           
    504000   185.94665      31.988555      31           
    505000   198.34806      42.584996      19           
    506000   168.79989      35.406223      20           
    507000   196.76971      41.503395      23           
    508000   227.6692       40.042039      36           
    509000   214.77068      44.943435      25           
    510000   186.19292      37.695301      21           
    511000   158.49397      34.786841      18           
    512000   267.19398      58.454085      20           
    513000   122.18529      28.574981      18           
    514000   194.58211      44.111522      20           
    515000   235.11956      47.455775      26           
    516000   130.22307      27.121884      17           
    517000   166.78916      35.543115      16           
    518000   228.90678      37.650074      40           
    519000   234.46843      52.589591      20           
    520000   180.49803      33.049618      28           
    521000   160.70768      36.011363      16           
    522000   185.09204      26.350953      38           
    523000   108.1273       21.219968      16           
    524000   189.57601      40.68874       25           
    525000   201.99028      37.489388      35           
    526000   163.55554      34.900309      20           
    527000   181.79942      39.215487      25           
    528000   161.18325      35.353059      18           
    529000   147.73435      32.57574       18           
    530000   155.23222      33.873149      19           
    531000   102.00939      23.902656      15           
    532000   178.49601      38.16026       29           
    533000   235.12417      50.271517      23           
    534000   111.72396      25.418246      17           
    535000   188.20542      43.374664      18           
    536000   128.8176       28.16209       16           
    537000   163.08822      37.390958      12           
    538000   181.37401      36.477359      27           
    539000   161.00392      36.512607      18           
    540000   102.00256      20.388686      16           
    541000   161.85522      37.07592       17           
    542000   59.028555      13.826805      8            
    543000   205.78308      40.779675      26           
    544000   148.27513      32.676008      14           
    545000   184.9461       36.480508      26           
    546000   156.07797      35.948953      15           
    547000   202.65848      47.353212      17           
    548000   184.38392      32.260918      29           
    549000   202.57532      44.735564      23           
    550000   195.49944      43.177784      24           
    551000   202.08281      45.44446       23           
    552000   157.94406      32.951474      19           
    553000   139.22872      29.088214      19           
    554000   191.0704       39.098309      19           
    555000   169.6659       35.81653       20           
    556000   147.44713      33.615055      17           
    557000   175.06783      40.14076       21           
    558000   176.20656      38.704774      21           
    559000   222.37097      30.328214      43           
    560000   160.42901      36.360257      19           
    561000   220.43843      49.947008      17           
    562000   201.41798      39.969323      29           
    563000   135.95226      30.009467      13           
    564000   252.08488      53.175797      26           
    565000   177.53904      37.049791      20           
    566000   263.6077       49.059662      35           
    567000   211.51575      46.802494      20           
    568000   155.40608      36.0354        14           
    569000   167.86285      39.520087      12           
    570000   219.46743      47.108922      24           
    571000   163.83782      37.290215      15           
    572000   193.47169      36.589696      25           
    573000   178.30977      37.001002      21           
    574000   174.12958      35.90836       21           
    575000   125.11988      28.180141      14           
    576000   161.11178      35.409996      22           
    577000   218.00638      41.980619      31           
    578000   208.29357      44.359859      21           
    579000   121.46687      28.60259       13           
    580000   172.3711       39.187456      18           
    581000   155.68283      33.959662      17           
    582000   243.84767      46.147381      33           
    583000   124.17812      25.742937      17           
    584000   194.78766      40.664511      20           
    585000   89.025195      21.369039      10           
    586000   139.14505      32.282848      12           
    587000   158.70566      32.033422      16           
    588000   179.78901      37.450928      22           
    589000   207.46469      40.21515       23           
    590000   189.84351      42.690172      19           
    591000   258.79242      51.806244      27           
    592000   187.31491      36.092508      25           
    593000   138.15459      33.412136      10           
    594000   121.98108      28.846874      10           
    595000   213.19292      43.13692       32           
    596000   248.7867       53.217363      19           
    597000   165.35589      33.616785      21           
    598000   196.81107      30.693935      34           
    599000   179.00073      37.52874       19           
    600000   173.55791      25.571791      32           
    601000   173.67829      39.885331      23           
    602000   154.8904       29.425788      24           
    603000   295.43813      55.933754      36           
    604000   207.16613      36.515474      35           
    605000   173.74069      35.29267       21           
    606000   138.55977      32.134781      13           
    607000   147.16204      34.316315      14           
    608000   209.50208      44.403417      18           
    609000   162.5786       36.496709      16           
    610000   209.71721      37.849252      29           
    611000   125.81098      26.664251      15           
    612000   245.87475      53.274154      25           
    613000   191.31393      40.227046      20           
    614000   149.47352      34.84878       15           
    615000   196.56688      43.11205       22           
    616000   188.45476      38.432848      27           
    617000   221.21085      42.170045      28           
    618000   204.54159      43.038988      20           
    619000   237.17839      43.526924      35           
    620000   148.79857      32.622636      15           
    621000   168.85439      28.25834       30           
    622000   180.71118      39.5546        21           
    623000   233.84055      40.368309      36           
    624000   191.01641      39.333907      21           
    625000   223.07754      45.478573      27           
    626000   162.71446      36.208561      20           
    627000   196.09121      41.168935      22           
    628000   132.79489      26.711436      15           
    629000   211.09626      45.737814      26           
    630000   162.61813      37.245727      14           
    631000   202.88301      40.89192       30           
    632000   164.12704      36.527634      19           
    633000   116.77195      26.341626      15           
    634000   150.15618      34.900438      13           
    635000   216.71718      45.788914      28           
    636000   241.95028      50.335304      31           
    637000   149.03745      31.685829      20           
    638000   238.55553      47.919762      27           
    639000   224.91304      40.564411      30           
    640000   148.11968      29.847687      16           
    641000   205.98745      39.794426      27           
    642000   129.32083      22.493893      21           
    643000   113.5932       25.74601       14           
    644000   212.54724      40.366843      35           
    645000   174.6699       38.788976      17           
    646000   216.01753      43.123604      27           
    647000   228.12456      46.712982      25           
    648000   178.25441      39.431487      17           
    649000   185.93904      36.697909      19           
    650000   140.52448      30.777602      19           
    651000   226.93687      45.029975      31           
    652000   223.50695      33.799515      37           
    653000   178.83645      35.243583      22           
    654000   240.59489      49.701635      28           
    655000   207.45314      41.852685      27           
    656000   231.69617      50.065173      24           
    657000   209.65265      45.175698      25           
    658000   205.81158      40.973459      28           
    659000   185.92391      38.610836      20           
    660000   183.84204      35.015436      20           
    661000   202.26099      40.021801      25           
    662000   220.00572      43.638528      29           
    663000   163.69025      35.090374      19           
    664000   251.29817      50.733188      31           
    665000   231.61135      46.680141      19           
    666000   194.34866      35.421104      23           
    667000   218.24067      33.725714      37           
    668000   218.9251       26.55062       42           
    669000   231.6456       50.529998      17           
    670000   172.25707      29.688184      24           
    671000   174.90394      36.945965      18           
    672000   192.27645      45.419767      17           
    673000   188.70557      40.462739      23           
    674000   203.51906      37.224465      29           
    675000   230.87534      42.439779      34           
    676000   146.50143      31.69568       19           
    677000   242.10768      42.403739      39           
    678000   129.23842      30.765913      16           
    679000   120.30903      27.68645       13           
    680000   191.37128      37.915859      26           
    681000   202.70388      41.791765      21           
    682000   206.39883      45.410653      20           
    683000   208.54808      38.930229      31           
    684000   208.19909      40.159359      29           
    685000   60.542498      14.641058      7            
    686000   204.20402      43.878096      24           
    687000   236.05249      44.692513      29           
    688000   249.82474      52.565693      25           
    689000   147.53141      31.35593       19           
    690000   176.96734      37.269837      24           
    691000   150.12741      32.665451      15           
    692000   135.6423       29.958337      18           
    693000   172.34873      36.88153       20           
    694000   99.694543      21.861169      16           
    695000   167.08922      36.190392      20           
    696000   112.12188      26.789303      11           
    697000   156.2033       34.251468      17           
    698000   194.48674      41.891594      24           
    699000   164.60654      38.514414      15           
    700000   90.533485      20.038992      14           
    701000   141.24435      29.42157       23           
    702000   167.84827      34.74595       25           
    703000   140.49824      27.785942      23           
    704000   139.79344      30.984903      15           
    705000   231.85249      39.696521      33           
    706000   108.3214       25.61077       13           
    707000   185.11501      40.527893      18           
    708000   135.73439      28.712762      16           
    709000   154.80374      36.244919      14           
    710000   204.06813      46.988414      24           
    711000   234.08398      46.567411      25           
    712000   200.4589       38.997922      23           
    713000   156.20436      32.017151      25           
    714000   201.41         40.392587      23           
    715000   258.58029      60.304166      29           
    716000   186.90918      41.365908      21           
    717000   240.50814      50.532828      23           
    718000   239.1879       47.290329      29           
    719000   204.92042      42.900239      26           
    720000   221.69923      44.954012      27           
    721000   144.04108      30.584028      20           
    722000   127.20831      26.92613       16           
    723000   175.16854      36.574046      17           
    724000   159.48089      34.726246      20           
    725000   165.00548      32.076114      29           
    726000   175.46975      35.282859      20           
    727000   207.27502      46.229801      23           
    728000   190.41753      35.386064      25           
    729000   158.63042      36.548782      17           
    730000   124.66811      27.906007      16           
    731000   167.13148      35.102942      19           
    732000   180.06482      40.14712       17           
    733000   157.29225      32.955759      18           
    734000   276.12912      50.74118       34           
    735000   141.95023      26.989076      21           
    736000   216.2225       43.145201      26           
    737000   103.77312      22.572517      13           
    738000   111.62299      24.19481       16           
    739000   163.24726      35.499076      14           
    740000   189.81991      40.268785      26           
    741000   109.01947      24.826065      14           
    742000   150.60257      30.556718      21           
    743000   137.64538      30.253855      19           
    744000   224.92681      45.760494      28           
    745000   261.08034      56.538205      23           
    746000   97.457427      21.663406      14           
    747000   223.97858      49.704785      23           
    748000   197.01823      43.206227      21           
    749000   212.6663       38.904401      28           
    750000   150.26534      30.164513      21           
    751000   252.01473      47.258092      32           
    752000   172.31697      36.470056      21           
    753000   147.30355      34.741347      19           
    754000   122.51394      26.590581      20           
    755000   177.35371      36.783731      24           
    756000   117.97246      26.012903      19           
    757000   220.02734      36.827998      34           
    758000   164.89333      39.992036      14           
    759000   250.17948      53.189193      26           
    760000   189.44971      38.747622      19           
    761000   127.27556      28.073641      15           
    762000   200.37696      38.577065      29           
    763000   253.34846      45.538281      32           
    764000   139.03862      31.865887      14           
    765000   147.56125      31.514596      17           
    766000   145.71267      30.223385      21           
    767000   122.84021      29.01497       12           
    768000   203.372        35.771534      30           
    769000   192.23134      40.571799      24           
    770000   128.53491      28.935106      15           
    771000   177.36939      37.637795      21           
    772000   180.33549      40.43698       19           
    773000   197.44867      31.54075       32           
    774000   219.84749      41.294773      32           
    775000   218.64855      44.98917       31           
    776000   197.98489      42.973469      22           
    777000   260.30693      47.353344      33           
    778000   208.52319      41.71505       29           
    779000   139.35504      28.655311      20           
    780000   128.62029      28.805712      17           
    781000   214.85931      44.433842      25           
    782000   235.42356      53.018588      26           
    783000   206.51245      34.5079        32           
    784000   193.39191      40.869505      24           
    785000   198.05302      42.894435      21           
    786000   151.13933      34.331175      16           
    787000   208.65133      38.904727      24           
    788000   183.86276      34.549674      30           
    789000   201.84583      31.804953      30           
    790000   145.1136       31.283938      21           
    791000   175.09348      38.025147      21           
    792000   188.39828      40.176181      20           
    793000   204.3738       45.220854      20           
    794000   205.67416      37.652838      28           
    795000   126.97994      28.500305      16           
    796000   168.23378      38.039827      18           
    797000   92.59118       20.081712      12           
    798000   223.66604      46.160954      27           
    799000   129.76458      29.750889      15           
    800000   159.13208      35.070233      18           
    801000   108.9015       24.673041      13           
    802000   131.97213      30.286823      16           
    803000   148.8167       34.671842      16           
    804000   202.89921      45.279731      23           
    805000   213.44342      40.74587       28           
    806000   134.02436      26.370605      15           
    807000   197.33429      39.877822      26           
    808000   254.1733       58.939962      23           
    809000   155.2561       35.551278      21           
    810000   236.79432      53.152985      21           
    811000   283.17276      55.926022      27           
    812000   176.68966      37.961342      23           
    813000   224.69847      44.362313      33           
    814000   245.0748       47.950702      35           
    815000   176.31684      33.138363      25           
    816000   181.83555      40.067773      24           
    817000   208.02999      39.3591        30           
    818000   188.42316      42.269176      20           
    819000   203.91129      42.393697      23           
    820000   191.40184      35.517637      26           
    821000   205.7348       44.33117       25           
    822000   219.34277      45.036657      28           
    823000   198.81809      35.93961       30           
    824000   187.90447      38.408822      26           
    825000   235.08266      47.975805      29           
    826000   165.32791      36.088372      21           
    827000   231.0498       49.383413      24           
    828000   204.34234      44.169946      21           
    829000   132.8721       30.841205      13           
    830000   112.2446       26.338312      11           
    831000   181.5789       38.64261       23           
    832000   219.18829      42.694095      29           
    833000   210.0547       38.785425      28           
    834000   171.18304      40.018263      13           
    835000   182.39658      40.360559      18           
    836000   245.4838       50.303418      21           
    837000   216.00219      45.076902      25           
    838000   190.96173      41.181396      22           
    839000   134.94721      29.974727      14           
    840000   188.73074      40.65552       21           
    841000   167.16024      36.082202      19           
    842000   215.06812      30.624151      33           
    843000   172.51036      38.717687      16           
    844000   156.49397      35.688478      17           
    845000   167.78147      39.319325      17           
    846000   241.69981      54.423032      24           
    847000   155.03936      27.478169      23           
    848000   135.19793      28.825502      17           
    849000   143.09375      31.395763      19           
    850000   113.50966      25.825931      13           
    851000   137.23807      30.306613      19           
    852000   180.43733      35.998014      26           
    853000   99.889918      24.215079      14           
    854000   217.4329       43.382618      27           
    855000   167.46975      36.108641      19           
    856000   190.6281       38.025341      18           
    857000   122.26779      28.858162      14           
    858000   191.1975       39.62256       23           
    859000   103.60219      20.409463      19           
    860000   141.14322      32.986041      13           
    861000   203.82703      43.27089       23           
    862000   179.50678      38.078785      25           
    863000   137.83932      30.173555      13           
    864000   203.38787      42.256064      20           
    865000   219.77683      45.868528      27           
    866000   219.19537      46.985828      22           
    867000   203.94863      40.459071      29           
    868000   181.80592      36.708539      27           
    869000   168.1337       36.381963      20           
    870000   221.4849       47.947786      27           
    871000   153.60949      27.718487      26           
    872000   191.28276      42.881945      19           
    873000   156.41435      29.532054      23           
    874000   212.6715       48.323739      21           
    875000   220.57539      48.532015      21           
    876000   149.97466      34.239885      18           
    877000   169.85963      37.476017      16           
    878000   206.86386      43.314257      25           
    879000   179.09868      41.572899      16           
    880000   177.21458      38.520892      21           
    881000   204.03616      38.185233      26           
    882000   236.84341      44.932875      31           
    883000   134.67294      30.974322      15           
    884000   171.79047      32.726392      26           
    885000   209.37246      44.332629      26           
    886000   168.10974      36.960287      21           
    887000   195.44781      42.723617      19           
    888000   200.39598      43.29343       20           
    889000   128.49152      27.232905      18           
    890000   209.01034      45.478365      24           
    891000   197.5446       43.457075      24           
    892000   210.09805      44.747178      23           
    893000   217.26107      46.440715      20           
    894000   127.55513      26.158263      18           
    895000   193.55909      32.336747      30           
    896000   170.80709      40.128193      17           
    897000   184.80815      37.61901       24           
    898000   157.47835      34.418911      18           
    899000   109.74393      24.179446      14           
    900000   190.95473      43.032883      23           
    901000   158.48646      36.405113      20           
    902000   210.61509      44.192193      25           
    903000   102.46429      22.816445      15           
    904000   201.16077      32.730841      29           
    905000   149.18192      32.009201      18           
    906000   241.42221      48.338426      31           
    907000   204.6305       40.427819      27           
    908000   180.13435      37.493829      22           
    909000   129.38065      28.588662      15           
    910000   158.07378      35.23709       21           
    911000   251.77423      48.036617      25           
    912000   171.85         33.660793      21           
    913000   156.16068      32.020257      21           
    914000   223.38777      43.814035      32           
    915000   180.90979      38.198665      19           
    916000   218.58614      49.004152      23           
    917000   91.733072      21.050349      12           
    918000   188.32607      38.497811      23           
    919000   256.21724      58.601833      20           
    920000   203.05628      35.719549      30           
    921000   154.36019      34.183612      17           
    922000   215.28897      42.870602      27           
    923000   109.53839      25.057318      13           
    924000   288.07693      55.01441       34           
    925000   197.49787      35.673743      24           
    926000   149.37837      32.941347      17           
    927000   200.47266      44.884575      17           
    928000   172.50704      35.930166      21           
    929000   137.31945      32.644249      12           
    930000   85.059207      18.024146      11           
    931000   195.71104      41.552186      21           
    932000   169.24307      37.815829      20           
    933000   196.61429      42.525093      21           
    934000   164.55073      30.533948      23           
    935000   147.19119      32.359787      16           
    936000   233.9873       44.484006      29           
    937000   237.83312      42.334032      29           
    938000   228.86644      48.811594      25           
    939000   214.8619       35.651897      32           
    940000   194.62007      39.998553      32           
    941000   121.19745      21.868719      20           
    942000   197.58712      36.890897      27           
    943000   189.87294      42.155013      20           
    944000   183.53252      40.327392      24           
    945000   230.07939      50.138715      28           
    946000   282.12076      54.244071      33           
    947000   204.55141      45.818067      21           
    948000   219.21744      44.305241      32           
    949000   202.68769      45.306258      21           
    950000   200.37368      41.997813      26           
    951000   207.40089      44.990106      23           
    952000   153.00199      34.492856      16           
    953000   142.19136      31.643593      18           
    954000   182.74528      33.425652      22           
    955000   170.75509      34.26497       23           
    956000   190.71284      37.639574      24           
    957000   303.89127      60.624045      33           
    958000   168.0686       35.18513       16           
    959000   186.74334      39.581018      24           
    960000   215.01932      44.27208       23           
    961000   269.88903      52.702264      27           
    962000   191.61283      41.390573      26           
    963000   236.66356      37.220961      43           
    964000   181.37336      32.848717      29           
    965000   91.144697      19.61521       14           
    966000   194.94611      39.050456      22           
    967000   151.24469      32.826995      18           
    968000   177.58558      40.087816      16           
    969000   125.25539      29.573358      11           
    970000   180.33078      36.680896      19           
    971000   151.95864      27.664771      27           
    972000   141.44854      31.495551      17           
    973000   129.78504      27.150403      15           
    974000   84.266868      18.400737      12           
    975000   208.10262      42.884107      27           
    976000   185.81667      40.363658      23           
    977000   85.869372      20.590124      12           
    978000   111.98108      25.791281      13           
    979000   216.5734       37.486532      34           
    980000   161.90982      36.868504      17           
    981000   158.0007       31.080999      24           
    982000   229.80667      42.505755      29           
    983000   200.78078      41.026004      24           
    984000   163.70063      34.6888        18           
    985000   169.60141      37.266009      21           
    986000   71.995932      13.83962       14           
    987000   171.7562       21.697953      31           
    988000   266.83832      51.490427      27           
    989000   192.9789       41.244281      26           
    990000   191.09993      42.210818      22           
    991000   154.68843      32.612193      23           
    992000   208.64916      45.590409      25           
    993000   196.17591      39.940125      22           
    994000   212.58797      42.297209      23           
    995000   170.30209      37.422394      21           
    996000   192.33991      44.106797      24           
    997000   197.13573      30.529381      39           
    998000   199.54275      40.629148      31           
    999000   154.21672      34.548994      17           
   1000000   229.85119      45.63245       30           
   1001000   175.57164      36.931639      19           
   1002000   193.85542      41.881256      20           
   1003000   145.63054      32.06163       17           
   1004000   148.5979       28.666686      21           
   1005000   193.08281      43.79039       20           
   1006000   137.63172      29.749715      21           
   1007000   201.32474      40.937988      22           
   1008000   224.3369       50.040616      23           
   1009000   177.2227       41.481759      17           
   1010000   189.73633      44.540511      18           
   1011000   99.000913      20.792077      15           
   1012000   204.3905       40.689175      31           
   1013000   141.26485      31.743643      18           
   1014000   147.80444      30.154363      23           
   1015000   184.33353      37.255715      23           
   1016000   190.23104      40.004287      24           
   1017000   128.80675      28.57992       15           
   1018000   195.37753      40.312453      26           
   1019000   167.30966      35.581614      19           
   1020000   151.48151      30.931284      18           
   1021000   137.13143      31.19314       14           
   1022000   205.40848      40.371211      28           
   1023000   191.83017      33.722479      32           
   1024000   119.06205      21.933077      19           
   1025000   183.16723      41.608682      19           
   1026000   217.20705      45.801891      21           
   1027000   160.93502      32.338809      19           
   1028000   171.94301      37.828871      23           
   1029000   222.00825      45.840693      26           
   1030000   161.44104      33.262774      20           
   1031000   141.89082      30.381461      15           
   1032000   196.99439      42.475064      22           
   1033000   143.68274      32.350253      14           
   1034000   214.87246      40.195521      30           
   1035000   192.4867       37.165846      27           
   1036000   173.01893      33.971169      22           
   1037000   132.406        29.463052      15           
   1038000   161.70793      31.433404      22           
   1039000   191.8121       40.708129      26           
   1040000   127.00011      29.588572      11           
   1041000   169.24643      36.757645      19           
   1042000   159.23102      34.230995      20           
   1043000   210.46844      38.002888      31           
   1044000   129.22452      29.739776      13           
   1045000   212.40749      48.189471      22           
   1046000   214.18183      49.287598      18           
   1047000   175.83576      39.570018      20           
   1048000   113.28007      23.298         14           
   1049000   219.81527      46.94715       26           
   1050000   200.41863      40.960801      26           
   1051000   206.85047      39.179785      25           
   1052000   211.98893      30.611587      39           
   1053000   307.78001      64.871125      29           
   1054000   239.66457      37.138419      34           
   1055000   172.52832      36.541505      22           
   1056000   73.132837      16.656954      15           
   1057000   241.59218      48.741945      26           
   1058000   174.65857      36.90201       24           
   1059000   179.51785      38.804149      18           
   1060000   173.98837      38.228984      19           
   1061000   191.50058      34.436355      26           
   1062000   186.82071      38.746073      24           
   1063000   181.48819      37.166328      24           
   1064000   203.13472      43.586087      21           
   1065000   192.75576      42.852354      24           
   1066000   171.1424       39.99963       16           
   1067000   208.36554      41.823209      26           
   1068000   181.56582      38.92335       22           
   1069000   190.5296       39.199276      19           
   1070000   114.30607      27.264292      11           
   1071000   154.9768       34.018818      20           
   1072000   115.35222      22.524242      19           
   1073000   147.07426      27.692287      22           
   1074000   261.32622      50.494525      30           
   1075000   203.30567      38.790102      30           
   1076000   240.85841      38.509118      37           
   1077000   201.61637      46.831636      16           
   1078000   67.598251      16.515292      6            
   1079000   181.18049      40.507708      18           
   1080000   135.01426      31.041761      10           
   1081000   216.42107      40.420158      32           
   1082000   243.02466      40.489152      38           
   1083000   178.15453      32.729247      24           
   1084000   216.16179      45.088694      24           
   1085000   206.55288      43.833717      23           
   1086000   235.95858      49.036099      29           
   1087000   257.7402       52.537466      29           
   1088000   205.36326      39.694686      22           
   1089000   201.06514      42.030369      22           
   1090000   105.92704      24.320803      13           
   1091000   143.27527      24.550316      20           
   1092000   231.21946      51.028944      21           
   1093000   161.18625      36.348843      23           
   1094000   117.19715      27.85352       12           
   1095000   217.12671      43.962808      24           
   1096000   162.19088      38.653009      13           
   1097000   119.52622      24.058541      20           
   1098000   148.31183      32.261825      21           
   1099000   177.86766      37.856393      20           
   1100000   128.94022      26.969382      15           
   1101000   235.25067      41.565185      32           
   1102000   72.04996       15.127147      11           
   1103000   156.16366      31.723995      20           
   1104000   160.50158      36.196451      20           
   1105000   174.22768      34.254374      20           
   1106000   210.97978      39.62458       30           
   1107000   226.18825      37.580069      36           
   1108000   221.47209      49.135563      23           
   1109000   155.51104      34.646996      20           
   1110000   166.82734      36.882015      19           
   1111000   165.02962      38.106643      19           
   1112000   221.20523      44.469793      26           
   1113000   142.94106      27.360667      20           
   1114000   193.10723      39.317752      26           
   1115000   180.48163      37.717081      23           
   1116000   163.55178      36.543754      16           
   1117000   120.58886      28.336108      11           
   1118000   174.59398      27.26959       31           
   1119000   104.07         22.965569      15           
   1120000   193.81991      38.266311      23           
   1121000   284.62165      38.48825       44           
   1122000   197.06039      39.052376      23           
   1123000   128.15915      24.31253       22           
   1124000   225.96042      39.078656      38           
   1125000   155.6408       34.851306      16           
   1126000   183.76202      40.726747      21           
   1127000   142.63319      26.628355      25           
   1128000   243.22468      34.874652      40           
   1129000   243.81019      45.479065      30           
   1130000   107.98429      23.240853      18           
   1131000   215.15392      47.612103      22           
   1132000   117.57678      23.565182      16           
   1133000   218.26029      37.780921      37           
   1134000   139.78847      28.554416      18           
   1135000   164.28681      38.127588      16           
   1136000   199.51848      42.570494      23           
   1137000   212.79306      42.227306      29           
   1138000   290.66201      62.720996      29           
   1139000   165.44378      36.252827      19           
   1140000   199.11903      38.302982      26           
   1141000   161.7226       36.628719      17           
   1142000   149.50551      33.43095       21           
   1143000   187.93993      35.633061      30           
   1144000   151.30382      30.109597      20           
   1145000   109.67666      23.617962      13           
   1146000   201.09085      36.387973      26           
   1147000   126.25206      27.706648      18           
   1148000   269.74221      54.182165      32           
   1149000   214.15592      45.193889      19           
   1150000   176.5514       31.585235      29           
   1151000   244.88109      50.65967       28           
   1152000   139.95202      25.692026      22           
   1153000   128.23187      23.575777      22           
   1154000   121.63939      27.275392      14           
   1155000   202.42202      39.403329      28           
   1156000   145.68738      32.550263      17           
   1157000   179.20058      38.792247      20           
   1158000   209.95362      45.042788      27           
   1159000   260.32809      56.595972      23           
   1160000   123.31084      29.280515      13           
   1161000   156.81784      32.438024      24           
   1162000   266.99698      47.55001       38           
   1163000   231.29351      45.908681      29           
   1164000   134.2828       30.339339      15           
   1165000   165.45345      37.93886       21           
   1166000   175.92275      34.249437      27           
   1167000   111.70724      22.989899      16           
   1168000   129.01822      29.084201      18           
   1169000   82.18504       17.874122      13           
   1170000   145.83811      30.467374      20           
   1171000   92.431559      19.595669      12           
   1172000   175.5756       39.814506      20           
   1173000   204.8586       41.115883      27           
   1174000   203.40271      44.950269      23           
   1175000   198.56402      40.43186       22           
   1176000   195.56746      39.89515       28           
   1177000   236.36172      43.150773      34           
   1178000   96.548826      22.946908      10           
   1179000   165.58982      34.324363      23           
   1180000   166.66592      34.848418      18           
   1181000   179.62939      40.815832      21           
   1182000   190.76355      39.414626      22           
   1183000   236.71709      43.524672      34           
   1184000   194.23695      44.714957      20           
   1185000   172.23166      34.692466      23           
   1186000   198.32071      44.349398      22           
   1187000   208.98891      42.272974      28           
   1188000   155.3394       35.899336      14           
   1189000   190.21021      41.164707      18           
   1190000   158.17572      33.956816      19           
   1191000   136.40417      29.379532      20           
   1192000   190.09851      38.123355      28           
   1193000   236.39054      49.702245      20           
   1194000   159.72152      36.676923      21           
   1195000   210.84826      39.803783      23           
   1196000   201.46957      44.327824      22           
   1197000   193.83861      39.389391      26           
   1198000   146.12861      31.954128      16           
   1199000   185.498        40.082319      20           
   1200000   206.85502      40.794387      31           
   1201000   216.74175      42.564145      29           
   1202000   251.50353      49.998734      27           
   1203000   100.35765      23.648688      12           
   1204000   137.00727      31.527267      17           
   1205000   135.52255      26.783407      19           
   1206000   96.358852      23.000054      13           
   1207000   140.52455      30.698532      19           
   1208000   193.91443      36.47854       31           
   1209000   132.25874      28.889837      19           
   1210000   182.76159      36.874584      23           
   1211000   189.20177      39.375426      25           
   1212000   158.54491      34.066226      19           
   1213000   197.82932      48.09246       24           
   1214000   111.07881      23.626234      22           
   1215000   98.109186      22.410733      11           
   1216000   185.39857      32.762542      30           
   1217000   190.40413      40.882988      24           
   1218000   211.51904      45.176486      24           
   1219000   209.12734      43.129528      28           
   1220000   233.69648      46.981763      26           
   1221000   171.86543      34.853329      23           
   1222000   173.698        35.96173       24           
   1223000   178.60822      36.689331      24           
   1224000   171.66711      38.385606      18           
   1225000   280.29055      46.977284      36           
   1226000   146.84086      31.192647      19           
   1227000   188.73376      39.074372      21           
   1228000   193.31792      41.464121      22           
   1229000   237.41859      34.712624      39           
   1230000   173.91032      33.703988      26           
   1231000   99.704777      23.023185      13           
   1232000   89.348427      18.406981      16           
   1233000   152.64146      34.23536       15           
   1234000   217.27514      39.516707      29           
   1235000   224.86698      46.57134       25           
   1236000   121.30779      27.831885      14           
   1237000   174.77237      29.296703      23           
   1238000   209.77299      44.103894      23           
   1239000   193.24588      41.033862      25           
   1240000   132.97857      31.579319      13           
   1241000   141.3096       30.522227      19           
   1242000   118.06614      26.643616      18           
   1243000   164.19168      37.127094      17           
   1244000   158.64908      32.913198      18           
   1245000   205.62658      39.687914      27           
   1246000   113.35022      25.863211      14           
   1247000   172.45627      34.474832      25           
   1248000   185.87906      41.406963      20           
   1249000   186.53962      40.023942      19           
   1250000   218.22728      46.555022      22           
   1251000   196.68254      38.392836      25           
   1252000   200.53261      34.895146      31           
   1253000   203.00804      35.389547      33           
   1254000   160.53031      35.200236      22           
   1255000   180.6582       36.831188      24           
   1256000   159.88268      34.508029      21           
   1257000   155.81571      34.887262      17           
   1258000   168.6256       38.834225      18           
   1259000   200.12388      42.281887      23           
   1260000   197.85282      42.205103      20           
   1261000   178.15078      33.614683      30           
   1262000   157.98594      33.136918      20           
   1263000   208.58431      36.031057      34           
   1264000   175.97882      38.918184      21           
   1265000   224.43586      39.616555      34           
   1266000   189.5723       39.894916      22           
   1267000   244.64102      54.055144      25           
   1268000   206.42915      39.720005      30           
   1269000   188.05705      36.943334      23           
   1270000   140.21583      29.107212      14           
   1271000   210.78709      44.154526      29           
   1272000   204.6173       45.277466      18           
   1273000   189.10541      36.313915      28           
   1274000   150.3664       30.141931      24           
   1275000   133.50836      30.243518      14           
   1276000   205.35567      42.115788      22           
   1277000   96.228308      22.015232      12           
   1278000   205.88311      44.450219      20           
   1279000   162.55079      32.390206      24           
   1280000   137.5951       30.841715      17           
   1281000   231.13924      43.522109      31           
   1282000   199.29141      39.714295      25           
   1283000   236.94995      39.171813      35           
   1284000   199.8863       45.842488      22           
   1285000   127.45         27.082639      19           
   1286000   206.38437      40.004213      27           
   1287000   149.46551      29.868118      28           
   1288000   150.46197      31.298023      18           
   1289000   165.95161      36.060627      20           
   1290000   179.11294      38.460237      21           
   1291000   178.03225      31.535807      34           
   1292000   288.79054      41.985058      42           
   1293000   179.61601      42.408241      16           
   1294000   230.3036       42.629723      32           
   1295000   191.51076      42.833784      21           
   1296000   202.5801       46.389863      18           
   1297000   127.66287      28.19275       14           
   1298000   165.68679      33.040813      25           
   1299000   188.35238      39.49262       24           
   1300000   220.76633      46.552142      22           
   1301000   118.22294      23.918951      16           
   1302000   276.59472      54.833083      28           
   1303000   192.00686      42.480885      20           
   1304000   80.679562      19.600055      10           
   1305000   173.11578      37.051979      17           
   1306000   229.29098      44.679561      26           
   1307000   150.51947      31.389957      14           
   1308000   185.25937      39.225665      25           
   1309000   227.91585      44.162736      28           
   1310000   233.57941      40.641521      38           
   1311000   215.96197      42.297434      30           
   1312000   210.00954      37.304923      32           
   1313000   214.31097      44.905323      25           
   1314000   205.12239      36.962781      31           
   1315000   211.90391      42.679903      24           
   1316000   200.14401      38.356949      27           
   1317000   148.71229      29.881774      20           
   1318000   216.18909      45.77611       24           
   1319000   146.79088      33.175376      16           
   1320000   169.92571      39.631761      15           
   1321000   142.14493      29.930151      18           
   1322000   247.21192      48.94323       28           
   1323000   159.91705      34.24139       21           
   1324000   193.22327      38.365151      24           
   1325000   130.69994      30.575036      13           
   1326000   208.86656      44.733937      28           
   1327000   161.73742      37.653776      13           
   1328000   201.48972      48.273792      23           
   1329000   191.46209      42.300604      23           
   1330000   265.23205      48.295031      33           
   1331000   187.00829      40.47674       24           
   1332000   269.90995      44.633137      37           
   1333000   152.39657      31.964364      18           
   1334000   118.53832      26.350392      15           
   1335000   182.54527      40.390167      18           
   1336000   208.21244      43.862449      22           
   1337000   222.29074      46.627368      25           
   1338000   141.62732      28.305738      18           
   1339000   179.51836      39.697376      18           
   1340000   225.60438      47.723459      26           
   1341000   136.44337      31.695222      13           
   1342000   190.16426      38.540555      22           
   1343000   178.04971      33.84273       21           
   1344000   202.90783      38.062319      26           
   1345000   185.3541       42.180607      17           
   1346000   193.03342      39.599632      24           
   1347000   142.48342      31.508911      15           
   1348000   217.36824      41.776638      29           
   1349000   180.4527       35.293071      23           
   1350000   199.6243       38.993951      28           
   1351000   81.70864       18.919623      12           
   1352000   147.09121      34.960194      12           
   1353000   239.73588      48.895033      22           
   1354000   182.97008      40.975548      17           
   1355000   152.71702      29.994504      23           
   1356000   130.67158      28.099116      16           
   1357000   296.57936      64.914668      25           
   1358000   103.89502      22.486526      11           
   1359000   137.89119      30.490425      14           
   1360000   123.25518      25.743046      19           
   1361000   180.22487      37.811266      26           
   1362000   207.52671      41.251339      27           
   1363000   199.37586      45.295471      23           
   1364000   241.36289      44.031254      33           
   1365000   179.03291      37.573968      27           
   1366000   226.57007      43.55257       25           
   1367000   144.22231      32.463951      18           
   1368000   212.92513      44.935037      23           
   1369000   152.23627      29.957613      19           
   1370000   102.23961      23.89188       10           
   1371000   197.74369      41.975636      19           
   1372000   143.46816      34.224013      13           
   1373000   155.07892      32.353092      19           
   1374000   232.26564      44.2069        29           
   1375000   218.93719      45.629483      22           
   1376000   221.04392      36.215966      37           
   1377000   198.4009       34.388641      31           
   1378000   158.51654      31.76088       24           
   1379000   141.57486      32.078356      15           
   1380000   164.31967      36.729853      15           
   1381000   168.89562      33.755544      21           
   1382000   134.01324      28.189965      18           
   1383000   171.47664      31.679981      26           
   1384000   175.57921      35.831094      20           
   1385000   257.28795      49.164554      30           
   1386000   157.90263      36.419441      18           
   1387000   181.20927      37.822362      21           
   1388000   267.50772      42.700517      42           
   1389000   195.31049      41.069922      21           
   1390000   185.33344      41.231972      18           
   1391000   145.16213      30.622057      20           
   1392000   201.65001      45.813533      20           
   1393000   131.31961      30.061764      16           
   1394000   206.67249      43.073668      29           
   1395000   172.55951      34.168985      21           
   1396000   136.34424      32.880157      12           
   1397000   141.90556      31.885233      18           
   1398000   186.46226      37.981092      25           
   1399000   190.021        30.210792      28           
   1400000   198.03823      41.616965      22           
   1401000   207.20477      38.382792      28           
   1402000   183.33485      36.085749      26           
   1403000   212.97087      42.818041      28           
   1404000   169.31084      36.585092      17           
   1405000   169.62494      37.670363      23           
   1406000   206.30627      42.598326      24           
   1407000   222.61257      48.077363      20           
   1408000   128.14106      30.024516      21           
   1409000   201.14605      45.402037      17           
   1410000   169.73865      37.289993      20           
   1411000   145.13163      28.087126      23           
   1412000   186.39523      40.521445      18           
   1413000   136.59096      28.730049      20           
   1414000   186.54527      41.251103      17           
   1415000   203.78087      37.273228      25           
   1416000   162.66473      35.737475      19           
   1417000   192.82558      44.724769      18           
   1418000   195.9853       41.855282      22           
   1419000   178.55711      32.194995      27           
   1420000   252.69481      48.769555      25           
   1421000   172.64325      37.039894      20           
   1422000   212.05456      43.420803      24           
   1423000   247.5678       48.840346      26           
   1424000   165.14002      38.42141       15           
   1425000   118.37234      27.859689      13           
   1426000   168.92334      33.85944       20           
   1427000   65.536667      15.067308      9            
   1428000   194.33254      42.479251      21           
   1429000   207.86518      43.317504      25           
   1430000   218.64278      46.003269      23           
   1431000   189.50889      42.745603      21           
   1432000   133.19027      31.370383      14           
   1433000   227.72388      40.373249      27           
   1434000   191.98654      44.396665      21           
   1435000   194.9172       40.737283      21           
   1436000   213.5189       40.21434       29           
   1437000   184.20195      39.436533      24           
   1438000   192.68605      38.523616      22           
   1439000   253.81913      52.316678      23           
   1440000   209.60328      42.307176      26           
   1441000   191.12262      37.631911      31           
   1442000   187.21931      43.139791      21           
   1443000   226.23526      32.904582      42           
   1444000   186.00437      36.593001      31           
   1445000   155.31669      32.558447      24           
   1446000   160.25918      34.69785       23           
   1447000   145.23001      33.421495      13           
   1448000   225.88262      46.339789      27           
   1449000   185.4842       36.282771      23           
   1450000   163.68057      27.70378       25           
   1451000   209.90764      41.842803      24           
   1452000   156.07587      32.722425      22           
   1453000   229.49218      49.46266       27           
   1454000   199.12447      44.065108      21           
   1455000   189.60973      38.666314      25           
   1456000   169.43486      32.014872      27           
   1457000   165.31453      35.520471      17           
   1458000   210.79084      45.266728      23           
   1459000   197.24492      36.921428      28           
   1460000   212.96042      39.167945      33           
   1461000   147.49506      31.370805      18           
   1462000   211.83823      41.844235      27           
   1463000   146.30766      33.721792      11           
   1464000   157.12386      35.105888      17           
   1465000   164.99016      36.423454      15           
   1466000   164.60421      34.330149      23           
   1467000   291.8052       57.934685      31           
   1468000   170.08358      37.914465      21           
   1469000   184.24005      42.196987      18           
   1470000   92.801358      21.56755       12           
   1471000   195.68345      42.668269      21           
   1472000   164.86438      27.92964       26           
   1473000   168.07771      34.920367      24           
   1474000   191.94772      37.395823      30           
   1475000   125.57306      29.237412      14           
   1476000   124.06349      29.145139      9            
   1477000   191.52419      43.972101      19           
   1478000   195.57314      45.641129      19           
   1479000   193.71636      41.29267       23           
   1480000   224.01708      42.349174      32           
   1481000   211.60275      42.421924      26           
   1482000   154.61223      32.963889      22           
   1483000   211.09678      40.41789       28           
   1484000   204.80536      45.98627       20           
   1485000   142.17177      25.149195      23           
   1486000   121.37173      28.05041       14           
   1487000   154.92773      33.138222      17           
   1488000   181.64745      33.50325       29           
   1489000   221.30332      46.914601      21           
   1490000   128.2431       30.346409      15           
   1491000   68.229067      14.663603      10           
   1492000   206.92724      43.76426       27           
   1493000   251.08529      50.770826      26           
   1494000   180.84034      36.824317      27           
   1495000   243.025        53.094181      24           
   1496000   181.8857       38.922837      26           
   1497000   222.6979       42.967834      28           
   1498000   188.03299      35.980067      25           
   1499000   172.06655      35.54776       23           
   1500000   167.09387      35.281373      20           
   1501000   202.10008      43.547474      24           
   1502000   201.57287      44.242169      16           
   1503000   213.26031      45.027033      26           
   1504000   143.11159      29.345238      20           
   1505000   204.6247       44.414996      23           
   1506000   232.79646      47.49007       24           
   1507000   199.03188      41.561251      24           
   1508000   105.56751      22.796682      18           
   1509000   118.9505       26.699325      18           
   1510000   189.9908       36.87541       26           
   1511000   142.4102       32.698779      15           
   1512000   183.5634       38.515282      26           
   1513000   140.06215      28.711224      20           
   1514000   173.34627      34.549168      23           
   1515000   224.92762      48.059943      23           
   1516000   152.12334      32.9989        20           
   1517000   226.93103      40.692113      34           
   1518000   291.66355      69.512801      18           
   1519000   200.05512      39.481469      28           
   1520000   237.64335      43.36603       32           
   1521000   180.45572      36.330465      26           
   1522000   188.12849      41.253483      22           
   1523000   233.45818      39.417546      33           
   1524000   159.04055      33.03839       21           
   1525000   210.78382      43.718879      25           
   1526000   164.6765       33.099243      19           
   1527000   219.24757      46.36045       23           
   1528000   194.56968      42.722495      24           
   1529000   180.65227      35.55482       26           
   1530000   204.55265      39.140794      27           
   1531000   152.95547      31.87439       21           
   1532000   213.28621      45.347091      22           
   1533000   209.89125      47.573692      20           
   1534000   168.95948      37.737148      17           
   1535000   217.38384      46.511171      27           
   1536000   192.67095      41.964671      28           
   1537000   244.10584      48.520545      33           
   1538000   117.94008      27.509289      15           
   1539000   186.24841      36.39689       24           
   1540000   166.43529      33.01571       24           
   1541000   266.80863      53.42247       26           
   1542000   200.31929      40.794578      23           
   1543000   206.83746      41.195086      28           
   1544000   160.45786      29.389928      27           
   1545000   141.14939      20.822273      28           
   1546000   167.46031      34.515966      21           
   1547000   193.80211      40.646966      21           
   1548000   232.57218      44.55732       27           
   1549000   173.39641      37.535224      19           
   1550000   174.00928      37.277894      24           
   1551000   219.96348      39.467052      36           
   1552000   206.30563      38.110939      28           
   1553000   138.3492       30.516933      19           
   1554000   194.18947      33.482701      32           
   1555000   209.22592      40.446773      29           
   1556000   220.80285      48.440332      25           
   1557000   237.61578      41.609356      37           
   1558000   169.98683      32.320165      26           
   1559000   141.15952      31.354879      14           
   1560000   147.46925      30.765797      15           
   1561000   183.17963      34.801908      23           
   1562000   239.96826      44.35441       28           
   1563000   221.89967      35.157987      36           
   1564000   140.36789      30.661572      16           
   1565000   156.01974      33.708149      16           
   1566000   48.173949      10.581289      7            
   1567000   203.53694      42.513569      23           
   1568000   176.09247      39.157494      18           
   1569000   203.04051      47.36508       18           
   1570000   167.17277      35.346915      21           
   1571000   204.0515       31.389538      37           
   1572000   156.58211      32.74076       20           
   1573000   231.09276      43.629793      32           
   1574000   209.90353      42.509448      22           
   1575000   202.4757       36.337863      29           
   1576000   127.08552      28.07439       14           
   1577000   184.06351      34.239945      23           
   1578000   96.550559      20.371356      12           
   1579000   117.26373      27.421442      12           
   1580000   171.6822       33.466346      16           
   1581000   167.47946      39.545801      15           
   1582000   139.57604      30.333642      18           
   1583000   198.42011      43.1673        23           
   1584000   79.860083      19.733511      9            
   1585000   195.03801      41.679077      21           
   1586000   232.07784      47.411311      27           
   1587000   148.30034      32.929285      18           
   1588000   202.3785       40.47617       27           
   1589000   173.72968      31.998225      23           
   1590000   193.08363      37.468192      25           
   1591000   183.66571      35.299065      28           
   1592000   209.05249      41.00665       26           
   1593000   113.6856       26.61528       12           
   1594000   181.57399      37.233063      22           
   1595000   148.23742      23.491294      29           
   1596000   128.18043      26.909699      20           
   1597000   220.60558      46.690621      26           
   1598000   206.17896      44.57115       24           
   1599000   216.67553      49.436486      22           
   1600000   167.06309      34.154442      22           
   1601000   189.52267      41.308397      23           
   1602000   172.85784      32.672048      28           
   1603000   184.94724      42.548929      19           
   1604000   207.35519      43.828114      26           
   1605000   196.41304      37.096782      24           
   1606000   186.16847      36.894656      24           
   1607000   201.08372      46.719675      16           
   1608000   69.627791      16.895836      6            
   1609000   209.80596      38.441143      26           
   1610000   187.10636      39.253821      26           
   1611000   162.24032      36.017272      17           
   1612000   160.41534      36.37276       18           
   1613000   201.68724      40.935309      21           
   1614000   231.24379      49.207703      28           
   1615000   228.94547      46.491526      27           
   1616000   198.88687      41.410502      27           
   1617000   174.2396       37.346969      21           
   1618000   202.38313      37.978835      30           
   1619000   92.255606      20.973041      9            
   1620000   205.58742      37.866505      27           
   1621000   171.64671      34.055184      25           
   1622000   170.22173      36.103698      22           
   1623000   243.87949      52.163441      23           
   1624000   212.759        46.552964      19           
   1625000   178.91414      37.184132      22           
   1626000   210.30607      39.22544       28           
   1627000   200.33863      40.681806      29           
   1628000   184.19227      38.157584      21           
   1629000   239.72314      31.021542      39           
   1630000   70.447005      16.021191      9            
   1631000   176.9847       40.739809      16           
   1632000   190.15119      40.568056      22           
   1633000   178.88012      40.459892      18           
   1634000   146.88309      37.343693      18           
   1635000   195.15917      38.659505      26           
   1636000   188.46113      40.437121      23           
   1637000   173.96085      36.961444      22           
   1638000   149.27502      32.735216      22           
   1639000   168.37795      33.803104      24           
   1640000   210.50759      40.776549      23           
   1641000   224.81541      44.097312      28           
   1642000   215.62734      44.795757      23           
   1643000   178.47638      38.650103      19           
   1644000   191.82962      43.012331      18           
   1645000   136.44446      31.385724      14           
   1646000   177.33913      39.029919      20           
   1647000   195.58647      39.815371      24           
   1648000   225.06134      32.927853      39           
   1649000   189.42292      35.714152      24           
   1650000   221.43843      45.608131      29           
   1651000   146.71903      31.535025      21           
   1652000   170.68003      37.375474      16           
   1653000   173.72225      38.530686      22           
   1654000   193.2786       36.543578      27           
   1655000   177.99383      40.224881      18           
   1656000   196.60976      43.067128      22           
   1657000   180.55653      36.816396      21           
   1658000   221.16528      43.408057      28           
   1659000   242.64824      48.232582      28           
   1660000   137.47882      31.87016       17           
   1661000   150.98807      34.118577      21           
   1662000   196.90502      37.286733      29           
   1663000   35.459639      8.5590338      6            
   1664000   199.48771      42.500123      21           
   1665000   165.3685       37.931165      16           
   1666000   233.81959      45.403857      32           
   1667000   226.74775      41.378151      35           
   1668000   183.30206      37.243004      22           
   1669000   155.88393      31.840581      21           
   1670000   104.16884      23.326469      16           
   1671000   196.22496      35.638301      25           
   1672000   160.6387       31.550668      23           
   1673000   217.47538      41.974268      22           
   1674000   137.32736      30.692378      16           
   1675000   181.31988      38.131468      23           
   1676000   141.69249      33.674596      13           
   1677000   141.45028      27.973161      18           
   1678000   219.84531      45.392098      23           
   1679000   227.3002       47.275047      28           
   1680000   207.17152      40.124946      28           
   1681000   209.0725       39.556972      31           
   1682000   70.452164      16.071907      9            
   1683000   212.86388      45.413602      25           
   1684000   193.99398      41.568194      23           
   1685000   241.87443      51.476876      27           
   1686000   181.53626      38.466858      17           
   1687000   173.13593      31.033921      27           
   1688000   149.48449      34.342013      16           
   1689000   239.5439       46.874713      30           
   1690000   185.94874      41.863133      20           
   1691000   166.87389      36.19178       22           
   1692000   194.54962      42.540873      21           
   1693000   220.97942      46.539616      24           
   1694000   103.05297      21.234736      17           
   1695000   120.65099      25.991136      17           
   1696000   199.59934      42.220837      25           
   1697000   204.49449      42.248823      28           
   1698000   222.45315      43.091365      32           
   1699000   226.89016      46.675952      20           
   1700000   249.72811      41.671847      30           
   1701000   169.1686       36.248847      19           
   1702000   230.73784      42.770997      31           
   1703000   176.38102      36.999244      19           
   1704000   208.8032       41.84629       26           
   1705000   157.99368      35.601794      19           
   1706000   147.90075      32.254494      18           
   1707000   185.74881      32.683623      28           
   1708000   158.40647      36.824512      19           
   1709000   246.76357      45.652836      30           
   1710000   187.21721      38.949881      23           
   1711000   169.09816      40.111943      18           
   1712000   87.662311      17.506551      12           
   1713000   179.32585      36.148221      22           
   1714000   251.89407      51.667956      27           
   1715000   216.88057      44.888283      30           
   1716000   160.49344      34.317517      20           
   1717000   228.55826      45.88075       27           
   1718000   168.59292      31.938867      26           
   1719000   228.95714      49.155464      27           
   1720000   81.594956      19.898133      9            
   1721000   138.67662      32.071027      16           
   1722000   176.40993      38.726524      19           
   1723000   137.94415      31.677255      17           
   1724000   192.2219       38.26259       29           
   1725000   118.45059      25.574221      20           
   1726000   169.40262      37.203504      19           
   1727000   300.94407      62.495804      29           
   1728000   221.78559      39.317714      35           
   1729000   121.4779       25.714853      15           
   1730000   126.74325      25.301731      19           
   1731000   137.75268      27.630674      25           
   1732000   113.17157      25.700817      14           
   1733000   224.63902      46.639156      22           
   1734000   217.1511       46.455477      26           
   1735000   115.00126      24.484525      14           
   1736000   204.43401      40.769552      23           
   1737000   221.36465      44.990032      28           
   1738000   219.53324      42.743584      31           
   1739000   132.88625      27.745133      16           
   1740000   122.50724      27.925313      16           
   1741000   209.05082      42.322272      27           
   1742000   268.07729      50.2075        32           
   1743000   185.72919      42.998305      15           
   1744000   153.88158      31.65714       21           
   1745000   79.362214      17.725976      13           
   1746000   247.37669      51.653297      25           
   1747000   148.00621      32.265864      19           
   1748000   176.72721      35.313628      21           
   1749000   193.98686      39.452623      28           
   1750000   188.80245      38.33484       25           
   1751000   194.17806      42.793677      24           
   1752000   229.25859      45.105312      31           
   1753000   186.15201      27.744754      36           
   1754000   213.12689      39.612302      29           
   1755000   164.97138      35.182719      17           
   1756000   201.56179      42.244446      24           
   1757000   235.05117      42.09408       32           
   1758000   140.03409      30.733968      19           
   1759000   108.53619      25.758709      13           
   1760000   172.47662      35.230763      21           
   1761000   207.64231      37.934155      29           
   1762000   123.59057      28.018265      15           
   1763000   162.26385      33.962246      21           
   1764000   171.70046      35.951581      27           
   1765000   229.17818      44.951271      27           
   1766000   170.69514      34.341298      20           
   1767000   199.04715      40.399054      25           
   1768000   153.40593      34.113607      16           
   1769000   194.49771      39.006335      29           
   1770000   160.64646      31.925277      23           
   1771000   148.29605      33.422264      13           
   1772000   175.67818      36.521958      25           
   1773000   147.79639      31.934215      19           
   1774000   232.67693      48.208862      26           
   1775000   179.27422      37.171367      21           
   1776000   135.05325      32.452625      11           
   1777000   162.34294      36.400446      18           
   1778000   159.84933      35.110452      20           
   1779000   193.24436      43.682599      20           
   1780000   185.46893      38.674381      19           
   1781000   105.40424      24.634156      15           
   1782000   227.79707      38.293338      35           
   1783000   218.98451      43.64221       30           
   1784000   213.44871      47.730585      18           
   1785000   187.7095       38.971901      21           
   1786000   139.84969      29.418792      18           
   1787000   180.49473      38.650011      21           
   1788000   205.40187      42.846669      25           
   1789000   212.49983      37.249878      30           
   1790000   213.45817      36.406422      28           
   1791000   181.88928      40.435113      21           
   1792000   247.56732      35.487929      38           
   1793000   140.79928      28.199946      20           
   1794000   168.39969      34.171136      18           
   1795000   228.66178      50.726536      26           
   1796000   223.40703      44.252495      27           
   1797000   207.12299      42.644045      25           
   1798000   83.822741      20.095993      11           
   1799000   157.37714      32.789496      19           
   1800000   207.65817      43.52561       23           
   1801000   220.32066      46.947069      26           
   1802000   118.06832      27.401103      15           
   1803000   155.98593      34.659585      19           
   1804000   161.14883      36.176334      20           
   1805000   229.67115      46.182181      33           
   1806000   156.64999      33.546703      16           
   1807000   164.20321      35.539898      20           
   1808000   155.44647      31.65197       21           
   1809000   199.27828      43.233797      22           
   1810000   186.84632      37.503996      28           
   1811000   229.69113      51.476861      25           
   1812000   210.64696      42.747905      29           
   1813000   199.94553      41.968117      22           
   1814000   202.4397       35.954995      30           
   1815000   127.95073      27.573238      16           
   1816000   98.054057      23.610174      9            
   1817000   300.27857      48.954722      44           
   1818000   163.14775      34.403075      19           
   1819000   187.3839       39.753703      21           
   1820000   150.27097      30.14227       19           
   1821000   165.73872      32.62111       22           
   1822000   160.76731      33.52436       20           
   1823000   169.23804      37.25104       18           
   1824000   185.48248      36.149464      30           
   1825000   259.56645      55.690546      25           
   1826000   243.66956      44.272492      34           
   1827000   208.48035      39.939057      27           
   1828000   187.40791      35.30786       24           
   1829000   167.8118       34.243353      20           
   1830000   188.92077      42.147761      18           
   1831000   212.27257      44.152522      24           
   1832000   260.59633      56.560193      26           
   1833000   286.38177      56.83963       35           
   1834000   114.99414      24.502922      16           
   1835000   205.45679      38.361583      31           
   1836000   262.52704      53.462038      26           
   1837000   112.71285      26.636235      10           
   1838000   288.65607      58.589557      27           
   1839000   223.90401      38.475023      32           
   1840000   227.10486      40.545844      37           
   1841000   243.86989      33.868086      44           
   1842000   169.83849      37.925743      13           
   1843000   168.26112      33.48011       22           
   1844000   221.76428      48.112878      23           
   1845000   125.48685      27.355403      17           
   1846000   206.98104      46.387167      21           
   1847000   196.84145      40.928525      21           
   1848000   198.34867      36.92995       30           
   1849000   179.31468      38.307787      21           
   1850000   216.31346      47.02227       22           
   1851000   207.13115      42.270623      22           
   1852000   217.39839      42.47276       27           
   1853000   266.98923      50.41357       31           
   1854000   173.66055      38.756551      20           
   1855000   227.08997      46.035219      30           
   1856000   221.65379      44.263763      30           
   1857000   141.93865      30.360057      14           
   1858000   151.27071      32.19048       18           
   1859000   200.04057      42.058065      21           
   1860000   308.84697      59.932494      28           
   1861000   233.32667      52.340764      21           
   1862000   149.14409      35.991088      13           
   1863000   163.95949      34.769358      16           
   1864000   224.41769      45.328441      30           
   1865000   117.28436      28.09116       11           
   1866000   180.51352      41.67621       25           
   1867000   137.52995      30.470191      13           
   1868000   173.19144      32.312159      27           
   1869000   117.34242      24.893454      15           
   1870000   103.15469      21.820587      17           
   1871000   248.67296      37.02797       44           
   1872000   123.44688      26.694002      17           
   1873000   194.13043      38.295703      27           
   1874000   235.75341      49.720068      29           
   1875000   230.90906      47.327888      24           
   1876000   229.24166      48.848691      22           
   1877000   157.32399      34.842037      21           
   1878000   187.16996      30.253965      26           
   1879000   175.98441      39.078312      23           
   1880000   190.15701      40.192334      25           
   1881000   132.00257      26.736107      19           
   1882000   222.36565      47.955574      23           
   1883000   123.63256      27.419166      17           
   1884000   216.9149       46.945582      25           
   1885000   124.49269      28.666593      16           
   1886000   216.24619      48.778943      20           
   1887000   237.83303      43.928374      28           
   1888000   181.82044      40.71511       19           
   1889000   144.39419      31.187543      17           
   1890000   201.01068      42.027023      20           
   1891000   229.57316      46.546038      32           
   1892000   165.08152      37.04605       17           
   1893000   141.92703      32.631119      16           
   1894000   140.50533      28.36577       19           
   1895000   193.46549      40.157214      27           
   1896000   168.20729      37.809442      19           
   1897000   198.12899      40.63995       20           
   1898000   178.94165      40.072461      18           
   1899000   126.03472      29.350407      18           
   1900000   188.98029      46.358973      20           
   1901000   132.53941      28.538054      16           
   1902000   241.18351      48.272541      26           
   1903000   184.05204      41.162014      17           
   1904000   213.09155      44.203728      25           
   1905000   159.78012      33.111913      17           
   1906000   145.71453      32.340506      16           
   1907000   127.09614      29.763727      14           
   1908000   115.67663      23.75245       17           
   1909000   206.25968      41.497212      28           
   1910000   134.81418      29.21816       17           
   1911000   141.69665      29.307592      18           
   1912000   123.50472      28.326728      15           
   1913000   259.22113      50.237339      28           
   1914000   160.413        20.392231      30           
   1915000   184.61938      31.846153      34           
   1916000   119.00192      24.436564      21           
   1917000   197.87473      29.159815      34           
   1918000   141.39378      29.805079      20           
   1919000   192.39436      40.625751      24           
   1920000   198.3647       44.54562       22           
   1921000   201.8052       40.367847      23           
   1922000   218.45403      43.750438      30           
   1923000   204.48299      40.149505      27           
   1924000   160.98179      32.972848      19           
   1925000   188.51206      38.10975       25           
   1926000   187.65531      42.198204      19           
   1927000   206.07126      45.98145       18           
   1928000   195.18326      41.152335      23           
   1929000   171.50948      36.663683      18           
   1930000   155.26935      34.232292      18           
   1931000   211.72895      37.84821       37           
   1932000   182.28827      40.83943       20           
   1933000   189.36862      43.877231      18           
   1934000   212.45367      45.774418      25           
   1935000   271.51721      44.925348      37           
   1936000   378.32046      79.963742      25           
   1937000   190.02601      39.531019      22           
   1938000   201.41088      43.093761      26           
   1939000   207.26219      42.920691      25           
   1940000   190.06146      39.63872       23           
   1941000   182.34039      42.488255      14           
   1942000   130.41033      28.857894      13           
   1943000   179.55469      39.381094      23           
   1944000   137.93296      28.893199      18           
   1945000   182.39058      40.809526      20           
   1946000   135.31921      28.821671      17           
   1947000   194.09013      36.253679      27           
   1948000   212.90955      46.830098      21           
   1949000   110.71517      23.847478      16           
   1950000   176.41228      33.816052      27           
   1951000   237.74425      44.803353      24           
   1952000   228.14163      46.505701      25           
   1953000   149.69773      33.20871       20           
   1954000   207.89314      44.278398      21           
   1955000   130.36882      29.382957      17           
   1956000   162.22822      35.288662      20           
   1957000   180.82493      39.106412      18           
   1958000   187.63177      38.755683      24           
   1959000   173.85378      38.86456       17           
   1960000   174.48787      39.636208      21           
   1961000   200.69907      41.341307      27           
   1962000   223.68756      46.608115      27           
   1963000   152.90635      32.045353      22           
   1964000   191.9181       43.576709      21           
   1965000   179.97214      36.362412      23           
   1966000   210.91937      42.692296      24           
   1967000   145.07701      32.679717      15           
   1968000   212.30423      42.711447      24           
   1969000   109.24432      23.454715      16           
   1970000   161.88543      34.785385      18           
   1971000   196.90296      43.809539      20           
   1972000   148.95766      30.49655       21           
   1973000   236.12267      45.524081      33           
   1974000   199.30437      45.319839      21           
   1975000   242.71495      36.063778      32           
   1976000   210.60554      41.48427       24           
   1977000   261.84471      46.928803      30           
   1978000   176.06527      37.506375      22           
   1979000   186.10223      37.279012      28           
   1980000   109.63325      26.547477      11           
   1981000   236.06658      45.531986      23           
   1982000   188.45776      39.780915      23           
   1983000   148.79236      34.089205      17           
   1984000   189.52927      42.729451      20           
   1985000   187.94552      40.595207      21           
   1986000   124.64884      29.639966      13           
   1987000   167.47161      36.409025      20           
   1988000   123.19078      27.004993      16           
   1989000   211.44972      43.386094      25           
   1990000   122.88717      27.853333      13           
   1991000   169.43977      33.963527      21           
   1992000   129.20957      30.769072      12           
   1993000   172.00545      40.135569      18           
   1994000   167.20494      35.025982      19           
   1995000   99.731162      20.813729      17           
   1996000   247.42623      44.380488      33           
   1997000   102.71579      22.290566      15           
   1998000   177.001        33.189564      26           
   1999000   170.1219       38.327603      16           
   2000000   206.94393      37.1853        35           
   2001000   250.16693      50.361958      30           
   2002000   144.72935      30.546276      17           
   2003000   184.01118      41.92867       20           
   2004000   183.19038      40.355186      17           
   2005000   176.71528      37.812539      21           
   2006000   189.79912      39.516851      21           
   2007000   186.15401      43.500265      18           
   2008000   247.97737      45.61837       33           
   2009000   137.3393       32.363134      15           
   2010000   264.01571      43.643297      39           
   2011000   119.73896      24.353869      10           
   2012000   214.16118      46.579203      24           
   2013000   144.78057      32.649007      15           
   2014000   111.46564      23.94688       15           
   2015000   226.64987      44.380552      27           
   2016000   167.62009      35.841796      17           
   2017000   201.0158       40.944116      23           
   2018000   194.36241      41.467383      20           
   2019000   227.94584      40.584454      32           
   2020000   138.68054      32.709412      15           
   2021000   232.9362       43.186433      30           
   2022000   255.44058      59.193504      22           
   2023000   127.97348      29.413628      14           
   2024000   193.1879       41.620002      20           
   2025000   222.15097      38.582888      32           
   2026000   239.14847      45.223965      28           
   2027000   188.9104       41.624448      20           
   2028000   110.88395      25.136564      15           
   2029000   176.97348      38.802661      19           
   2030000   177.62448      37.991537      21           
   2031000   177.95535      40.326193      20           
   2032000   185.3062       42.048315      19           
   2033000   148.88403      30.81005       19           
   2034000   252.85787      44.227774      36           
   2035000   251.98709      54.285785      28           
   2036000   141.5234       31.709355      14           
   2037000   221.20551      41.239618      25           
   2038000   240.92745      46.175063      30           
   2039000   186.78218      36.146622      25           
   2040000   183.69474      42.04521       18           
   2041000   146.37069      31.731581      17           
   2042000   161.18711      34.951717      19           
   2043000   191.42057      44.026925      19           
   2044000   228.76357      46.546778      28           
   2045000   110.14262      25.343688      14           
   2046000   198.02274      39.670659      27           
   2047000   198.00244      45.62676       16           
   2048000   184.53927      33.281295      28           
   2049000   179.55501      36.914733      25           
   2050000   122.85432      25.885937      19           
   2051000   153.00452      35.36076       17           
   2052000   212.18027      44.568761      26           
   2053000   193.45677      40.275372      25           
   2054000   182.55431      40.487046      22           
   2055000   147.50341      32.91294       18           
   2056000   202.38005      41.383095      24           
   2057000   168.0725       31.772313      23           
   2058000   211.1159       42.031898      28           
   2059000   206.56448      41.004214      25           
   2060000   188.41867      39.378306      19           
   2061000   120.04039      25.785659      12           
   2062000   186.03289      38.777344      18           
   2063000   210.71244      39.854425      29           
   2064000   175.58122      36.277115      26           
   2065000   191.24545      40.554311      22           
   2066000   155.43018      31.245136      23           
   2067000   246.43009      50.420407      29           
   2068000   226.40899      43.458465      25           
   2069000   223.22461      46.14306       26           
   2070000   250.99939      50.898959      29           
   2071000   120.05586      27.499586      11           
   2072000   169.24047      38.896489      17           
   2073000   207.67651      40.446714      31           
   2074000   185.16865      39.137465      20           
   2075000   179.72049      38.91943       22           
   2076000   252.16391      44.391537      37           
   2077000   143.02426      25.372525      22           
   2078000   247.22953      38.970588      41           
   2079000   208.34056      40.487028      33           
   2080000   190.01675      37.77314       24           
   2081000   170.93476      37.855147      18           
   2082000   199.09604      34.869448      31           
   2083000   145.51133      30.12296       17           
   2084000   134.39941      28.941931      18           
   2085000   170.42768      39.36811       20           
   2086000   184.33144      37.120733      26           
   2087000   169.86215      37.623451      20           
   2088000   185.398        37.747949      26           
   2089000   297.6011       61.305239      30           
   2090000   176.40349      35.085871      26           
   2091000   141.08852      30.331098      18           
   2092000   122.62602      28.128881      15           
   2093000   85.534258      20.019767      12           
   2094000   192.89988      44.57774       20           
   2095000   217.51754      48.922705      19           
   2096000   220.23082      42.021669      29           
   2097000   179.26767      37.983438      21           
   2098000   180.56141      35.80376       20           
   2099000   97.177478      21.209447      15           
   2100000   193.81994      41.276064      20           
   2101000   212.61321      43.747131      26           
   2102000   186.483        36.161659      27           
   2103000   132.32264      30.543967      14           
   2104000   153.28287      32.386589      18           
   2105000   193.00804      42.780744      25           
   2106000   202.01548      40.661867      26           
   2107000   208.87721      40.799321      29           
   2108000   194.20758      36.344351      30           
   2109000   148.36102      30.495488      20           
   2110000   103.90841      23.04075       12           
   2111000   199.62425      35.91052       34           
   2112000   229.21419      49.026814      20           
   2113000   197.79777      44.147784      21           
   2114000   188.22647      38.111089      23           
   2115000   204.85967      42.037368      26           
   2116000   208.52816      47.852144      21           
   2117000   157.97494      33.370367      18           
   2118000   143.55682      33.112311      15           
   2119000   139.90193      32.345645      16           
   2120000   189.84862      43.160916      19           
   2121000   110.14715      25.563413      15           
   2122000   221.84719      46.2989        26           
   2123000   196.85084      38.463035      25           
   2124000   223.27903      41.563541      29           
   2125000   181.11727      38.233128      21           
   2126000   88.097717      19.259572      11           
   2127000   169.97361      34.160263      24           
   2128000   191.43857      36.899562      28           
   2129000   216.50956      35.908228      39           
   2130000   212.48181      43.040408      23           
   2131000   130.12914      28.601952      14           
   2132000   118.56519      26.433343      15           
   2133000   169.17444      36.87652       23           
   2134000   213.17784      44.705646      22           
   2135000   226.46743      36.811768      39           
   2136000   132.98115      29.02369       17           
   2137000   177.88925      38.030315      18           
   2138000   211.95582      37.004566      31           
   2139000   132.75587      30.514677      14           
   2140000   123.51894      26.278934      15           
   2141000   150.22896      33.05659       18           
   2142000   144.92475      29.758772      20           
   2143000   204.29201      39.706656      25           
   2144000   173.76072      37.931628      20           
   2145000   209.42208      44.532384      24           
   2146000   175.2948       40.051068      12           
   2147000   220.82018      43.838223      26           
   2148000   208.16327      45.042567      24           
   2149000   170.09675      35.152388      21           
   2150000   117.86871      25.454834      17           
   2151000   162.63829      36.631566      18           
   2152000   141.04951      30.487582      13           
   2153000   224.71468      47.780769      23           
   2154000   269.94397      57.312774      28           
   2155000   185.92921      40.362797      21           
   2156000   121.37873      29.027445      11           
   2157000   267.57791      55.917195      30           
   2158000   183.42541      38.17394       27           
   2159000   171.34152      39.191438      13           
   2160000   143.1734       33.561345      16           
   2161000   205.76416      46.635766      19           
   2162000   203.18728      39.541382      31           
   2163000   166.61285      36.66628       18           
   2164000   99.177251      21.211533      14           
   2165000   195.0352       39.223312      26           
   2166000   164.90898      35.531942      18           
   2167000   208.65131      41.648242      25           
   2168000   154.58867      34.409484      20           
   2169000   302.55875      65.016698      30           
   2170000   148.56974      33.736014      17           
   2171000   194.85391      38.03082       28           
   2172000   176.93721      37.177309      22           
   2173000   155.60385      33.964532      19           
   2174000   215.09361      44.206799      26           
   2175000   124.92649      26.584109      13           
   2176000   181.4453       35.380275      23           
   2177000   132.31305      28.987106      17           
   2178000   132.80714      26.571452      22           
   2179000   111.04736      26.364511      15           
   2180000   178.64653      38.025964      19           
   2181000   129.00393      27.613448      19           
   2182000   194.42667      41.543975      27           
   2183000   181.2506       38.646236      23           
   2184000   181.34195      41.864616      17           
   2185000   164.80065      35.286204      19           
   2186000   184.72822      39.207856      23           
   2187000   210.49025      40.830516      31           
   2188000   224.42717      48.651382      26           
   2189000   213.23147      44.429592      25           
   2190000   102.80624      24.229655      13           
   2191000   171.27123      36.362928      19           
   2192000   215.44527      45.766204      26           
   2193000   93.985798      21.742489      12           
   2194000   245.73705      52.083708      27           
   2195000   137.7088       30.410385      16           
   2196000   217.62352      48.968795      27           
   2197000   188.52986      41.128415      22           
   2198000   193.12193      36.866085      29           
   2199000   232.3896       47.735288      27           
   2200000   232.39421      46.208053      28           
   2201000   124.98816      26.671467      17           
   2202000   198.07945      45.774118      20           
   2203000   164.19457      37.044851      20           
   2204000   256.61819      54.433907      26           
   2205000   218.42948      43.816884      28           
   2206000   220.18653      44.412182      29           
   2207000   169.27316      38.04774       21           
   2208000   251.0859       48.313496      32           
   2209000   131.12871      28.104151      18           
   2210000   209.41413      45.718729      22           
   2211000   177.43177      35.403177      21           
   2212000   169.83245      34.12873       19           
   2213000   221.16643      38.156423      29           
   2214000   95.670538      19.366614      13           
   2215000   251.49332      50.78151       28           
   2216000   211.94858      42.796412      25           
   2217000   203.61292      40.09308       26           
   2218000   95.063903      22.739905      13           
   2219000   94.734811      22.566154      12           
   2220000   192.37055      40.336509      25           
   2221000   206.00718      44.873145      24           
   2222000   193.85455      42.246524      22           
   2223000   221.01252      44.822276      27           
   2224000   154.75211      33.535169      18           
   2225000   137.34062      28.6709        21           
   2226000   162.06202      34.370487      19           
   2227000   208.25733      39.339892      29           
   2228000   78.897281      19.180722      7            
   2229000   161.34282      36.639712      20           
   2230000   164.1305       30.406242      23           
   2231000   205.08388      44.353101      21           
   2232000   205.02555      45.08584       21           
   2233000   162.72839      36.539314      14           
   2234000   134.58578      31.695533      15           
   2235000   175.62505      38.642188      25           
   2236000   183.38859      30.543332      29           
   2237000   135.97999      29.749578      14           
   2238000   254.58865      47.020299      33           
   2239000   228.97588      49.02803       24           
   2240000   112.8049       26.05784       16           
   2241000   214.33096      42.287525      29           
   2242000   186.07001      38.645601      23           
   2243000   244.93623      41.713637      37           
   2244000   136.21634      31.639429      15           
   2245000   104.84659      24.08409       9            
   2246000   209.11752      38.572007      30           
   2247000   198.87322      42.114697      24           
   2248000   167.05143      34.0544        19           
   2249000   198.46295      43.248612      25           
   2250000   165.06533      30.629154      22           
   2251000   146.50556      31.063884      20           
   2252000   235.43804      42.014832      35           
   2253000   148.57981      31.98832       18           
   2254000   172.35595      34.881156      19           
   2255000   213.16587      35.191036      28           
   2256000   178.41523      33.25588       26           
   2257000   175.88807      37.470961      22           
   2258000   124.99103      27.914667      16           
   2259000   215.04244      45.68527       23           
   2260000   151.55705      33.353386      15           
   2261000   154.67355      34.302148      15           
   2262000   222.00306      47.950219      21           
   2263000   205.22548      43.259716      27           
   2264000   129.86723      28.903322      17           
   2265000   180.76865      38.06055       24           
   2266000   265.6096       54.086131      28           
   2267000   218.84496      41.145005      28           
   2268000   216.01049      44.554465      26           
   2269000   153.57656      33.274989      19           
   2270000   222.11576      46.256137      21           
   2271000   200.99761      46.402809      18           
   2272000   109.67002      25.994456      18           
   2273000   185.92543      35.565145      25           
   2274000   150.12875      35.23009       11           
   2275000   191.24131      39.348154      23           
   2276000   263.67718      47.957789      34           
   2277000   232.49443      41.743084      32           
   2278000   302.35833      62.290051      26           
   2279000   246.21761      47.576768      31           
   2280000   215.12226      48.196268      23           
   2281000   183.45467      33.733981      23           
   2282000   219.68834      43.357555      23           
   2283000   174.08849      35.749852      23           
   2284000   186.95534      39.123032      20           
   2285000   179.86599      43.269276      16           
   2286000   211.48044      33.54118       37           
   2287000   88.864606      19.448448      12           
   2288000   176.35142      39.616984      17           
   2289000   196.48889      38.105227      30           
   2290000   166.4938       35.833755      20           
   2291000   206.74933      41.415321      28           
   2292000   173.49004      38.219449      21           
   2293000   326.21896      72.336985      24           
   2294000   175.8289       38.947797      21           
   2295000   135.76632      31.732258      16           
   2296000   132.84023      31.319158      12           
   2297000   172.19073      32.951602      24           
   2298000   164.14595      31.680684      22           
   2299000   162.47612      33.697636      18           
   2300000   210.29098      41.863889      25           
   2301000   151.88883      30.819562      20           
   2302000   173.41413      29.490424      32           
   2303000   231.85         45.737837      21           
   2304000   234.19804      43.086757      32           
   2305000   191.52538      37.184412      23           
   2306000   182.58472      42.93712       16           
   2307000   206.08512      41.158873      26           
   2308000   134.89762      29.410622      18           
   2309000   157.82841      34.64261       20           
   2310000   179.56823      39.440946      19           
   2311000   158.64312      35.972099      17           
   2312000   163.13701      34.787745      18           
   2313000   191.1027       37.851359      27           
   2314000   164.20411      34.528341      18           
   2315000   240.63875      42.461613      34           
   2316000   141.03622      32.490462      17           
   2317000   99.933139      19.254795      16           
   2318000   143.71848      29.80988       17           
   2319000   184.3312       35.332112      24           
   2320000   180.52582      40.2381        17           
   2321000   171.45154      35.28503       21           
   2322000   198.75377      38.731479      29           
   2323000   226.54407      49.479527      21           
   2324000   184.3751       36.710246      27           
   2325000   122.43008      28.297168      12           
   2326000   214.95148      43.086053      27           
   2327000   169.26989      34.031986      24           
   2328000   237.77131      40.802765      35           
   2329000   162.94554      33.463686      24           
   2330000   257.37865      53.716299      27           
   2331000   163.42306      36.828527      14           
   2332000   185.55827      40.365677      25           
   2333000   214.27084      47.644033      18           
   2334000   210.33689      42.358296      25           
   2335000   227.73887      45.548818      32           
   2336000   197.56036      39.323411      27           
   2337000   211.23308      40.997887      23           
   2338000   200.54909      43.891674      19           
   2339000   253.17575      52.497311      26           
   2340000   177.92848      36.597703      22           
   2341000   176.20366      37.461001      21           
   2342000   182.58102      40.420023      22           
   2343000   190.80564      42.242468      23           
   2344000   222.28294      44.280352      28           
   2345000   191.42049      39.382161      21           
   2346000   207.30599      40.300196      28           
   2347000   124.71286      28.858883      13           
   2348000   187.968        42.241717      18           
   2349000   244.77013      53.935355      27           
   2350000   165.60637      34.792579      23           
   2351000   230.1268       49.466075      23           
   2352000   275.63388      51.902453      30           
   2353000   150.33943      32.413879      16           
   2354000   210.65192      42.298182      30           
   2355000   217.09096      45.863129      22           
   2356000   155.63511      36.878898      14           
   2357000   185.52         39.68329       19           
   2358000   143.91602      31.91058       15           
   2359000   183.63889      39.101284      22           
   2360000   224.52636      40.99431       27           
   2361000   154.65277      33.077398      18           
   2362000   182.53171      38.675558      24           
   2363000   223.9977       46.90257       21           
   2364000   171.72968      28.128924      28           
   2365000   154.57933      33.189564      21           
   2366000   264.46876      41.712693      36           
   2367000   124.39774      27.273477      19           
   2368000   182.17916      37.461132      22           
   2369000   75.138696      16.779146      12           
   2370000   131.03122      27.89836       19           
   2371000   190.67384      40.520666      22           
   2372000   149.38477      31.978845      21           
   2373000   145.41294      29.588996      18           
   2374000   186.6805       38.476339      22           
   2375000   147.90767      32.694015      20           
   2376000   143.89119      33.583328      14           
   2377000   113.87672      24.790119      15           
   2378000   211.50958      43.485793      23           
   2379000   248.03117      45.043206      35           
   2380000   249.08136      45.684333      33           
   2381000   182.3364       36.928263      25           
   2382000   222.5453       46.922746      26           
   2383000   189.85281      42.290863      18           
   2384000   219.28272      36.117573      30           
   2385000   154.93172      34.273476      22           
   2386000   185.73517      39.147778      21           
   2387000   160.51012      35.075549      17           
   2388000   234.25981      47.872271      26           
   2389000   135.52054      32.207606      15           
   2390000   238.06367      51.226639      20           
   2391000   258.98924      48.673921      31           
   2392000   176.2072       38.619018      22           
   2393000   180.78096      40.145848      28           
   2394000   183.02057      37.408422      22           
   2395000   172.58008      36.389029      20           
   2396000   210.81047      42.556761      27           
   2397000   211.05269      39.663563      30           
   2398000   258.72895      54.749674      24           
   2399000   170.01263      38.428034      20           
   2400000   213.62636      46.094673      24           
   2401000   161.88041      33.859278      21           
   2402000   234.60601      50.216592      24           
   2403000   163.5373       37.583583      14           
   2404000   194.40893      33.455149      29           
   2405000   226.41209      45.476018      30           
   2406000   232.93171      43.164794      32           
   2407000   124.59275      28.758049      15           
   2408000   125.53253      26.851117      19           
   2409000   121.58708      26.449503      16           
   2410000   241.31121      47.51423       30           
   2411000   141.72553      32.221407      16           
   2412000   276.78293      55.075652      29           
   2413000   184.26645      35.199902      25           
   2414000   266.9534       57.402157      26           
   2415000   136.44084      30.675324      16           
   2416000   182.40561      37.020169      22           
   2417000   223.99053      44.724662      28           
   2418000   270.26933      50.002066      32           
   2419000   173.8761       33.38486       22           
   2420000   174.55961      36.333468      19           
   2421000   210.34954      45.420334      19           
   2422000   145.4431       33.125987      16           
   2423000   230.49685      48.991878      25           
   2424000   151.61818      34.0458        14           
   2425000   132.28962      30.403668      15           
   2426000   283.3068       60.777492      29           
   2427000   227.4614       46.444069      28           
   2428000   180.322        38.503631      20           
   2429000   194.37518      41.043645      22           
   2430000   114.28916      26.18855       12           
   2431000   213.74645      44.67385       23           
   2432000   259.32789      51.399042      30           
   2433000   115.62772      25.145991      11           
   2434000   137.61152      26.795928      18           
   2435000   131.23921      27.921997      15           
   2436000   190.79737      41.614792      17           
   2437000   174.39587      31.865449      26           
   2438000   219.24525      41.632097      29           
   2439000   162.28316      35.185232      22           
   2440000   188.86882      40.032447      21           
   2441000   254.20809      47.965969      30           
   2442000   170.40597      39.762407      16           
   2443000   152.9011       29.958368      20           
   2444000   142.07164      32.670512      17           
   2445000   188.89401      42.783133      18           
   2446000   205.15815      43.282222      23           
   2447000   139.51277      32.780459      15           
   2448000   186.01399      39.788365      19           
   2449000   186.22985      38.768211      21           
   2450000   127.72223      25.696394      15           
   2451000   164.87923      38.654357      13           
   2452000   124.52074      27.876943      14           
   2453000   172.60511      36.819147      19           
   2454000   186.18607      35.864301      22           
   2455000   205.66442      46.276217      23           
   2456000   160.97664      34.719926      23           
   2457000   214.21078      46.101059      28           
   2458000   187.52895      36.442575      22           
   2459000   217.39355      41.359501      26           
   2460000   148.97592      34.509268      15           
   2461000   150.18474      34.230516      15           
   2462000   222.99855      41.491353      25           
   2463000   172.26827      39.657029      17           
   2464000   182.71897      39.725956      15           
   2465000   169.72307      36.865408      21           
   2466000   222.68064      45.598978      27           
   2467000   209.53162      39.805912      26           
   2468000   181.88718      40.154114      23           
   2469000   196.85923      42.239744      22           
   2470000   168.13228      36.749116      20           
   2471000   210.97588      40.647296      26           
   2472000   195.11143      39.936441      23           
   2473000   184.64454      40.14352       22           
   2474000   167.15975      38.421651      15           
   2475000   205.37045      45.240953      24           
   2476000   209.36013      43.502757      27           
   2477000   106.60895      23.976818      13           
   2478000   129.04592      28.615956      15           
   2479000   146.39543      31.423842      18           
   2480000   140.88736      32.78436       12           
   2481000   155.16265      30.687898      23           
   2482000   175.81352      34.873895      23           
   2483000   194.20151      39.625779      25           
   2484000   204.76518      45.620303      23           
   2485000   139.36079      32.996177      14           
   2486000   230.84406      45.858835      25           
   2487000   103.96372      25.595615      13           
   2488000   105.64548      24.938822      9            
   2489000   194.46606      44.598544      12           
   2490000   148.98367      34.2055        19           
   2491000   212.54239      42.720958      26           
   2492000   237.47892      54.733982      21           
   2493000   219.7792       45.991511      30           
   2494000   163.54239      37.81298       18           
   2495000   212.55169      47.11269       26           
   2496000   166.13262      34.983702      22           
   2497000   164.37899      36.98367       14           
   2498000   259.2006       53.924752      29           
   2499000   191.32409      38.891784      25           
   2500000   182.27458      33.213043      26           
   2501000   151.04149      28.432204      26           
   2502000   90.398241      20.483973      15           
Loop time of 872.314 on 8 procs for 2500000 steps with 45 atoms

Performance: 247.617 ns/day, 0.097 hours/ns, 2865.940 timesteps/s, 128.967 katom-step/s
798.5% CPU use with 1 MPI tasks x 8 OpenMP threads

MPI task timing breakdown:
Section |  min time  |  avg time  |  max time  |%varavg| %total
---------------------------------------------------------------
Pair    | 14.544     | 14.544     | 14.544     |   0.0 |  1.67
Bond    | 11.911     | 11.911     | 11.911     |   0.0 |  1.37
Kspace  | 150.08     | 150.08     | 150.08     |   0.0 | 17.20
Neigh   | 1.4846     | 1.4846     | 1.4846     |   0.0 |  0.17
Comm    | 7.3595     | 7.3595     | 7.3595     |   0.0 |  0.84
Output  | 0.056193   | 0.056193   | 0.056193   |   0.0 |  0.01
Modify  | 685.8      | 685.8      | 685.8      |   0.0 | 78.62
Other   |            | 1.079      |            |       |  0.12

Nlocal:             45 ave          45 max          45 min
Histogram: 1 0 0 0 0 0 0 0 0 0
Nghost:            391 ave         391 max         391 min
Histogram: 1 0 0 0 0 0 0 0 0 0
Neighs:            692 ave         692 max         692 min
Histogram: 1 0 0 0 0 0 0 0 0 0

Total # of neighbors = 692
Ave neighs/atom = 15.377778
Ave special neighs/atom = 2
Neighbor list builds = 2567849
Dangerous builds = 0
Total wall time: 0:14:32
