LAMMPS (27 Jun 2024)
  using 8 OpenMP thread(s) per MPI task
package omp 0
using multi-threaded neighbor list subroutines
# LAMMPS input script by Simon Gravelle
# For LAMMPS tutorials, see https://lammpstutorials.github.io
# Last tested using the 27Jun2024 LAMMPS version

variable Nstep equal 2500000
variable mu_K equal -4000
variable mu_kcal_mol equal ${mu_K}*0.0019872041
variable mu_kcal_mol equal -4000*0.0019872041
print "mu equal ${mu_kcal_mol}"
mu equal -7.9488164
variable tfac equal 5.0/3.0
variable Nattempt equal 100

units real
boundary p p p
atom_style full
pair_style lj/cut/coul/long 12
kspace_style ewald 1.0e-5
bond_style harmonic
angle_style harmonic
pair_modify mix geometric
special_bonds lj 0.0 0.0 0.0 coul 0.0 0.0 0.0 angle yes

read_data box.data
Reading data file ...
  orthogonal box = (-12.5 -12.5 -12.5) to (12.5 12.5 12.5)
  1 by 1 by 1 MPI processor grid
  reading atom labelmap ...
  reading bond labelmap ...
  reading angle labelmap ...
  reading atoms ...
  75 atoms
  reading velocities ...
  75 velocities
  scanning bonds ...
  1 = max bonds/atom
  scanning angles ...
  1 = max angles/atom
  orthogonal box = (-12.5 -12.5 -12.5) to (12.5 12.5 12.5)
  1 by 1 by 1 MPI processor grid
  reading bonds ...
  50 bonds
  reading angles ...
  25 angles
Finding 1-2 1-3 1-4 neighbors ...
  special bond factors lj:    0        0        0       
  special bond factors coul:  0        0        0       
     2 = max # of 1-2 neighbors
     1 = max # of 1-3 neighbors
     1 = max # of 1-4 neighbors
  50 = # of 1-3 neighbors before angle trim
  50 = # of 1-3 neighbors after angle trim
     2 = max # of special neighbors
  special bonds CPU = 0.000 seconds
  read_data CPU = 0.011 seconds
labelmap atom 1 O 2 H
labelmap bond 1 O-H
labelmap angle 1 H-O-H

group H2O type O H
75 atoms in group H2O
include parm.lmp
# LAMMPS parameter file for H2O SPCE water model
# For conversion from K to kcal / mol, multiply
# by Boltzmann = 0.0019872041 kcal / (mol * K)

mass O 15.9994 # O
mass H 1.00784 # H

pair_coeff O O 0.15535 3.166
pair_coeff H H 0.0 1.0

bond_coeff O-H 0.0 1.0 # rigid

angle_coeff H-O-H 0.0 109.47 # rigid
molecule h2Omol H2O.mol
Read molecule template h2Omol:
# LAMMPS molecule file for carbondioxide
  1 molecules
  0 fragments
  3 atoms with max type 2
  2 bonds with max type 1
  1 angles with max type 1
  0 dihedrals with max type 0
  0 impropers with max type 0

fix mynvt H2O rigid/nvt/small molecule temp 300 300 100 mol h2Omol
  create bodies CPU = 0.000 seconds
  25 rigid bodies with 75 atoms
  1 = max distance from body owner to body atom
thermo 1000

run 2000

CITE-CITE-CITE-CITE-CITE-CITE-CITE-CITE-CITE-CITE-CITE-CITE-CITE

Your simulation uses code contributions which should be cited:

- Type Label Framework: https://doi.org/10.1021/acs.jpcb.3c08419

@Article{Gissinger24,
 author = {Jacob R. Gissinger, Ilia Nikiforov, Yaser Afshar, Brendon Waters, Moon-ki Choi, Daniel S. Karls, Alexander Stukowski, Wonpil Im, Hendrik Heinz, Axel Kohlmeyer, and Ellad B. Tadmor},
 title = {Type Label Framework for Bonded Force Fields in LAMMPS},
 journal = {J. Phys. Chem. B},
 year =    2024,
 volume =  128,
 number =  13,
 pages =   {3282â€“-3297}
}

CITE-CITE-CITE-CITE-CITE-CITE-CITE-CITE-CITE-CITE-CITE-CITE-CITE

Ewald initialization ...
  using 12-bit tables for long-range coulomb (src/kspace.cpp:342)
  G vector (1/distance) = 0.22469438
  estimated absolute RMS force accuracy = 0.0038172427
  estimated relative force accuracy = 1.1495513e-05
  KSpace vectors: actual max1d max3d = 257 5 665
                  kxmax kymax kzmax  = 5 5 5
Generated 1 of 1 mixed pair_coeff terms from geometric mixing rule
Last active /omp style is kspace_style ewald/omp
Neighbor list info ...
  update: every = 1 steps, delay = 0 steps, check = yes
  max neighbors/atom: 2000, page size: 100000
  master list distance cutoff = 14
  ghost atom cutoff = 14
  binsize = 7, bins = 4 4 4
  1 neighbor lists, perpetual/occasional/extra = 1 0 0
  (1) pair lj/cut/coul/long/omp, perpetual
      attributes: half, newton on, omp
      pair build: half/bin/newton/omp
      stencil: half/bin/3d
      bin: standard
Per MPI rank memory allocation (min/avg/max) = 26.58 | 26.58 | 26.58 Mbytes
   Step          Temp          E_pair         E_mol          TotEng         Press     
         0   0              1.2491558      0              1.2491558      43.713899    
      1000   279.04395     -21.99489       0              18.762184     -33.846059    
      2000   330.08069     -49.381587      0             -1.1701038     -108.78563    
Loop time of 0.259661 on 8 procs for 2000 steps with 75 atoms

Performance: 665.483 ns/day, 0.036 hours/ns, 7702.355 timesteps/s, 577.677 katom-step/s
794.6% CPU use with 1 MPI tasks x 8 OpenMP threads

MPI task timing breakdown:
Section |  min time  |  avg time  |  max time  |%varavg| %total
---------------------------------------------------------------
Pair    | 0.012772   | 0.012772   | 0.012772   |   0.0 |  4.92
Bond    | 0.0098082  | 0.0098082  | 0.0098082  |   0.0 |  3.78
Kspace  | 0.16777    | 0.16777    | 0.16777    |   0.0 | 64.61
Neigh   | 0.0026147  | 0.0026147  | 0.0026147  |   0.0 |  1.01
Comm    | 0.0062847  | 0.0062847  | 0.0062847  |   0.0 |  2.42
Output  | 2.0303e-05 | 2.0303e-05 | 2.0303e-05 |   0.0 |  0.01
Modify  | 0.05941    | 0.05941    | 0.05941    |   0.0 | 22.88
Other   |            | 0.0009764  |            |       |  0.38

Nlocal:             75 ave          75 max          75 min
Histogram: 1 0 0 0 0 0 0 0 0 0
Nghost:            633 ave         633 max         633 min
Histogram: 1 0 0 0 0 0 0 0 0 0
Neighs:           2028 ave        2028 max        2028 min
Histogram: 1 0 0 0 0 0 0 0 0 0

Total # of neighbors = 2028
Ave neighs/atom = 27.04
Ave special neighs/atom = 2
Neighbor list builds = 76
Dangerous builds = 0

fix fgcmc H2O gcmc 100 ${Nattempt} 0 0 65899 300 ${mu_kcal_mol} 0.1     mol h2Omol tfac_insert ${tfac} full_energy rigid mynvt
fix fgcmc H2O gcmc 100 100 0 0 65899 300 ${mu_kcal_mol} 0.1     mol h2Omol tfac_insert ${tfac} full_energy rigid mynvt
fix fgcmc H2O gcmc 100 100 0 0 65899 300 -7.9488164 0.1     mol h2Omol tfac_insert ${tfac} full_energy rigid mynvt
fix fgcmc H2O gcmc 100 100 0 0 65899 300 -7.9488164 0.1     mol h2Omol tfac_insert 1.66666666666667 full_energy rigid mynvt

variable oxygen atom "type==1"
group oxygen dynamic all var oxygen
dynamic group oxygen defined
variable nO equal count(oxygen)
fix myat1 all ave/time 100 1 100 v_nO file number_H2O.dat
variable density equal v_nO*(15.9994+2*1.008)/vol/6.022e23*(1e8)^3
fix myat2 all ave/time 100 1 100 v_density file density_H2O.dat
compute press all pressure thermo_temp
fix myat3 all ave/time 10 100 1000 c_press file pressure_H2O.dat
thermo_style custom step temp etotal v_nO

run ${Nstep}
run 2500000
Ewald initialization ...
  using 12-bit tables for long-range coulomb (src/kspace.cpp:342)
  G vector (1/distance) = 0.22469438
  estimated absolute RMS force accuracy = 0.0038172427
  estimated relative force accuracy = 1.1495513e-05
  KSpace vectors: actual max1d max3d = 257 5 665
                  kxmax kymax kzmax  = 5 5 5
Generated 1 of 1 mixed pair_coeff terms from geometric mixing rule
Last active /omp style is kspace_style ewald/omp
0 atoms in group FixGCMC:gcmc_exclusion_group:fgcmc
0 atoms in group FixGCMC:rotation_gas_atoms:fgcmc
WARNING: Neighbor exclusions used with KSpace solver may give inconsistent Coulombic energies (src/neighbor.cpp:658)
Per MPI rank memory allocation (min/avg/max) = 26.58 | 26.58 | 26.58 Mbytes
   Step          Temp          TotEng          v_nO     
      2000   330.08069     -1.1701038      25           
      3000   329.86207     -102.6436       34           
      4000   391.92222     -480.70174      72           
      5000   394.16431     -873.58059      99           
      6000   461.19714     -1235.2798      131          
      7000   547.19888     -1627.2247      161          
      8000   404.07555     -1995.7259      184          
      9000   503.2659      -2323.3176      216          
     10000   490.53815     -2717.2837      246          
     11000   404.87409     -3110.71        268          
     12000   418.64553     -3382.6111      288          
     13000   417.62732     -3649.0181      309          
     14000   384.09589     -3931.3283      327          
     15000   371.55226     -4205.817       347          
     16000   357.70303     -4447.4322      361          
     17000   330.63326     -4680.8858      376          
     18000   417.86539     -4876.6187      391          
     19000   316.95866     -5153.6953      407          
     20000   430.64732     -5252.786       415          
     21000   324.78118     -5442.8674      425          
     22000   313.16147     -5566.9368      433          
     23000   345.82505     -5703.1904      443          
     24000   365.0294      -5795.4157      449          
     25000   402.07087     -5895.0063      456          
     26000   301.31545     -5955.73        457          
     27000   292.91856     -6045.8577      463          
     28000   285.33886     -6088.354       465          
     29000   313.75995     -6127.5763      467          
     30000   348.02272     -6192.3161      472          
     31000   325.33255     -6323.532       481          
     32000   284.54071     -6360.3763      482          
     33000   362.99666     -6380.9392      485          
     34000   335.57659     -6465.6162      489          
     35000   287.32295     -6490.7862      490          
     36000   295.71374     -6492.8104      490          
     37000   270.23924     -6532.9162      492          
     38000   340.66298     -6554.9108      495          
     39000   306.41246     -6620.2896      498          
     40000   319.01306     -6635.7584      499          
     41000   275.89087     -6680.6677      501          
     42000   370.36241     -6690.9077      503          
     43000   313.10977     -6712.2466      503          
     44000   329.52689     -6761.7768      507          
     45000   317.05841     -6786.6262      508          
     46000   277.41255     -6813.1381      509          
     47000   360.73372     -6793.878       510          
     48000   290.05769     -6833.1571      510          
     49000   367.49251     -6812.0986      510          
     50000   305.60006     -6824.4441      510          
     51000   291.04962     -6829.131       510          
     52000   287.29031     -6835.2534      510          
     53000   314.64569     -6838.2808      511          
     54000   339.6724      -6830.7722      511          
     55000   294.45176     -6868.3261      513          
     56000   282.2821      -6876.8455      513          
     57000   303.94006     -6889.6982      515          
     58000   322.89814     -6913.1701      517          
     59000   302.36372     -6918.7474      517          
     60000   320.83737     -6919.7309      517          
     61000   300.02738     -6921.2248      517          
     62000   340.93763     -6911.3455      517          
     63000   310.26304     -6916.4526      517          
     64000   296.66332     -6927.2528      517          
     65000   287.81178     -6951.8997      519          
     66000   284.25481     -6955.8575      519          
     67000   316.96183     -6943.4397      519          
     68000   350.98594     -6935.4849      519          
     69000   275.32866     -6961.8634      519          
     70000   305.97717     -6950.8499      519          
     71000   314.33153     -6967.9066      520          
     72000   302.27691     -6968.3531      520          
     73000   288.50226     -6977.8869      520          
     74000   316.63206     -6971.2745      520          
     75000   324.02129     -6967.2645      520          
     76000   325.46249     -6978.8001      521          
     77000   337.56038     -6983.2887      521          
     78000   290.45713     -7012.9362      522          
     79000   294.34478     -7013.5328      522          
     80000   276.50014     -7020.7316      522          
     81000   280.59912     -7019.03        522          
     82000   308.59107     -7012.2129      522          
     83000   289.88087     -7022.4601      522          
     84000   331.57666     -7005.0524      522          
     85000   299.72671     -7041.2373      524          
     86000   338.2694      -7055.7486      525          
     87000   261.08544     -7083.912       525          
     88000   309.42419     -7085.8575      526          
     89000   353.08663     -7073.0815      526          
     90000   295.66431     -7093.4934      526          
     91000   279.75839     -7101.1633      526          
     92000   305.37842     -7097.003       526          
     93000   344.48142     -7077.1512      526          
     94000   278.6126      -7112.2005      527          
     95000   319.4932      -7098.9567      527          
     96000   261.15096     -7120.4534      527          
     97000   327.63494     -7102.0429      527          
     98000   287.06138     -7112.0951      527          
     99000   274.95116     -7114.3633      527          
    100000   337.50622     -7118.2545      528          
    101000   279.97242     -7126.7185      528          
    102000   311.34537     -7118.535       528          
    103000   285.69057     -7125.0987      528          
    104000   320.77581     -7115.5541      528          
    105000   279.03421     -7131.7363      529          
    106000   324.86822     -7126.7405      529          
    107000   286.15197     -7141.2899      529          
    108000   306.47936     -7135.9717      529          
    109000   272.36489     -7144.0934      529          
    110000   301.6856      -7134.3654      529          
    111000   292.86828     -7139.79        529          
    112000   351.67332     -7126.3936      529          
    113000   281.52387     -7157.1917      530          
    114000   326.10396     -7146.9425      530          
    115000   310.78199     -7151.4751      530          
    116000   277.53874     -7173.4223      531          
    117000   322.04288     -7157.9111      531          
    118000   272.48391     -7180.3301      531          
    119000   314.47318     -7164.1866      531          
    120000   273.08709     -7182.7761      532          
    121000   276.14247     -7190.227       532          
    122000   347.86709     -7171.5127      532          
    123000   271.10557     -7193.4467      532          
    124000   298.4025      -7195.7956      533          
    125000   305.47144     -7196.5078      533          
    126000   306.6538      -7201.863       533          
    127000   266.28573     -7218.0104      533          
    128000   311.64582     -7206.1751      533          
    129000   263.65704     -7234.0016      534          
    130000   340.75288     -7223.5797      534          
    131000   286.62679     -7232.4503      534          
    132000   394.14226     -7208.4834      534          
    133000   312.39883     -7227.889       534          
    134000   319.79609     -7240.8684      535          
    135000   328.97941     -7243.2492      535          
    136000   269.18979     -7270.0265      536          
    137000   348.0176      -7247.3617      536          
    138000   291.5836      -7264.2006      536          
    139000   313.36505     -7259.7939      536          
    140000   354.27384     -7248.9738      536          
    141000   313.40179     -7258.9424      536          
    142000   279.1877      -7266.4167      536          
    143000   348.17796     -7247.4329      536          
    144000   334.80307     -7253.1416      536          
    145000   265.79311     -7271.8059      536          
    146000   306.30535     -7259.5509      536          
    147000   297.08061     -7267.4672      536          
    148000   275.4378      -7273.5681      536          
    149000   319.97955     -7252.6394      536          
    150000   298.17481     -7266.7396      536          
    151000   327.44531     -7261.2011      536          
    152000   288.471       -7271.1122      536          
    153000   313.69942     -7261.7781      536          
    154000   315.12757     -7263.5168      536          
    155000   281.86975     -7269.6523      536          
    156000   312.52288     -7261.4007      536          
    157000   285.76373     -7264.7481      536          
    158000   318.20896     -7257.1408      536          
    159000   276.31461     -7269.0135      536          
    160000   319.26941     -7260.8589      536          
    161000   327.35125     -7270.7495      538          
    162000   299.23866     -7287.3288      538          
    163000   286.81829     -7289.462       538          
    164000   311.32031     -7279.8398      538          
    165000   325.2774      -7280.4124      538          
    166000   312.86236     -7289.7112      538          
    167000   293.87989     -7295.4993      538          
    168000   322.38423     -7282.6834      538          
    169000   294.66702     -7295.8859      538          
    170000   278.6686      -7300.2497      538          
    171000   303.56652     -7304.8489      539          
    172000   315.75089     -7295.901       539          
    173000   308.14595     -7311.3793      540          
    174000   290.05849     -7320.2655      540          
    175000   290.30923     -7320.9869      540          
    176000   293.04504     -7317.6428      540          
    177000   294.80149     -7319.6622      540          
    178000   307.28152     -7319.9268      540          
    179000   267.45331     -7327.8059      540          
    180000   314.34061     -7317.0229      540          
    181000   290.0341      -7322.2316      540          
    182000   331.94327     -7310.5495      540          
    183000   287.24456     -7321.6239      540          
    184000   341.80359     -7315.2271      540          
    185000   274.70539     -7327.731       540          
    186000   355.93936     -7306.1868      540          
    187000   289.92548     -7327.3171      540          
    188000   267.19212     -7331.4388      540          
    189000   343.82906     -7310.8635      540          
    190000   342.73613     -7309.4663      540          
    191000   296.7716      -7326.7558      540          
    192000   307.95252     -7317.2534      540          
    193000   316.47417     -7321.3272      540          
    194000   296.07592     -7321.2628      540          
    195000   334.1764      -7312.6425      540          
    196000   284.21419     -7331.2743      540          
    197000   289.7996      -7324.7476      540          
    198000   324.03541     -7314.0533      540          
    199000   290.94253     -7326.5688      540          
    200000   290.80298     -7328.381       540          
    201000   275.94524     -7329.7852      540          
    202000   286.41465     -7326.4576      540          
    203000   285.76538     -7327.036       540          
    204000   289.83208     -7327.3076      540          
    205000   301.35501     -7322.7995      540          
    206000   272.15029     -7334.5006      540          
    207000   312.83003     -7323.9693      540          
    208000   264.23045     -7336.136       540          
    209000   302.2881      -7340.5149      541          
    210000   314.67738     -7332.853       541          
    211000   316.34373     -7335.3686      541          
    212000   321.22214     -7337.94        541          
    213000   300.66011     -7344.3578      541          
    214000   276.16634     -7351.1613      541          
    215000   326.8274      -7333.1754      541          
    216000   331.76324     -7335.7318      541          
    217000   289.07256     -7342.4152      541          
    218000   321.26413     -7335.5949      541          
    219000   303.23641     -7355.3139      542          
    220000   333.98354     -7347.4427      542          
    221000   281.6856      -7363.877       542          
    222000   341.95036     -7345.0592      542          
    223000   298.45026     -7358.774       542          
    224000   296.93028     -7354.7976      542          
    225000   294.97787     -7354.2386      542          
    226000   293.97174     -7358.285       542          
    227000   326.46684     -7352.3026      542          
    228000   315.77963     -7350.0289      542          
    229000   316.05265     -7346.7683      542          
    230000   295.84118     -7359.23        542          
    231000   310.82175     -7353.93        542          
    232000   292.552       -7371.4335      543          
    233000   322.49281     -7359.9946      543          
    234000   287.63175     -7370.6677      543          
    235000   322.7828      -7364.4999      543          
    236000   332.44174     -7358.5907      543          
    237000   319.22146     -7362.4937      543          
    238000   292.36825     -7369.3469      543          
    239000   274.84331     -7372.2694      543          
    240000   294.14583     -7370.3119      543          
    241000   310.28393     -7362.8571      543          
    242000   321.99245     -7360.2379      543          
    243000   308.33867     -7363.4537      543          
    244000   335.94025     -7358.6969      543          
    245000   315.20518     -7361.9877      543          
    246000   351.20751     -7356.5678      543          
    247000   260.00663     -7377.3802      543          
    248000   287.1732      -7370.4217      543          
    249000   291.21947     -7369.2085      543          
    250000   294.77072     -7366.3998      543          
    251000   260.19646     -7381.1315      543          
    252000   321.56425     -7357.6641      543          
    253000   250.06185     -7380.7618      543          
    254000   297.19151     -7370.4087      543          
    255000   312.62035     -7363.9694      543          
    256000   305.22241     -7360.9356      543          
    257000   319.41296     -7360.2449      543          
    258000   288.58849     -7375.2529      543          
    259000   286.93223     -7371.317       543          
    260000   327.11974     -7358.1838      543          
    261000   324.11598     -7357.4471      543          
    262000   254.92765     -7379.268       543          
    263000   356.90608     -7347.1811      543          
    264000   300.58734     -7364.0188      543          
    265000   334.60359     -7359.1697      543          
    266000   279.97498     -7375.1294      543          
    267000   307.5356      -7361.2074      543          
    268000   281.39077     -7376           543          
    269000   298.00033     -7369.2715      543          
    270000   288.58065     -7366.5187      543          
    271000   293.24984     -7368.2903      543          
    272000   357.69001     -7354.2122      543          
    273000   263.01871     -7376.2625      543          
    274000   328.3937      -7353.2857      543          
    275000   297.25885     -7380.4862      544          
    276000   337.6062      -7372.4428      544          
    277000   303.48082     -7376.935       544          
    278000   336.11796     -7364.5925      544          
    279000   285.56237     -7382.2308      544          
    280000   306.95647     -7377.4923      544          
    281000   313.53197     -7375.9362      544          
    282000   286.53224     -7381.421       544          
    283000   302.28235     -7377.5416      544          
    284000   293.93655     -7380.256       544          
    285000   315.99743     -7368.3239      544          
    286000   359.54471     -7359.5294      544          
    287000   356.57487     -7376.8167      545          
    288000   289.73117     -7394.2579      545          
    289000   312.54094     -7385.6758      545          
    290000   274.32975     -7396.804       545          
    291000   327.58023     -7381.4829      545          
    292000   343.00958     -7378.9033      545          
    293000   265.4405      -7402.4569      545          
    294000   353.12067     -7373.1031      545          
    295000   268.8699      -7400.3659      545          
    296000   310.60825     -7388.5101      545          
    297000   300.28056     -7392.3165      545          
    298000   274.3952      -7395.9783      545          
    299000   283.00335     -7396.0187      545          
    300000   256.73362     -7405.5638      545          
    301000   276.77565     -7397.1011      545          
    302000   309.57893     -7390.6081      545          
    303000   311.65785     -7387.0548      545          
    304000   306.91804     -7391.7588      545          
    305000   309.05485     -7386.6249      545          
    306000   306.37187     -7390.7267      545          
    307000   261.56671     -7403.641       545          
    308000   286.02332     -7399.6606      545          
    309000   262.34679     -7406.285       545          
    310000   277.44437     -7399.4383      545          
    311000   284.42719     -7393.799       545          
    312000   343.31126     -7382.2699      545          
    313000   283.9231      -7400.1598      545          
    314000   320.45433     -7385.4271      545          
    315000   269.99899     -7400.8457      545          
    316000   290.11715     -7398.0221      545          
    317000   364.45497     -7377.3953      545          
    318000   291.68828     -7396.7552      545          
    319000   305.77077     -7391.9889      545          
    320000   359.12828     -7377.6054      545          
    321000   258.60999     -7407.7889      545          
    322000   338.59564     -7385.5546      545          
    323000   309.42605     -7389.6075      545          
    324000   312.97305     -7387.8816      545          
    325000   300.78591     -7394.9586      545          
    326000   307.49747     -7388.3033      545          
    327000   335.32625     -7383.9543      545          
    328000   279.82432     -7398.8577      545          
    329000   267.61184     -7414.4603      546          
    330000   297.20369     -7407.3356      546          
    331000   300.59247     -7408.2183      546          
    332000   287.82563     -7407.192       546          
    333000   282.06937     -7410.8955      546          
    334000   282.61113     -7411.1189      546          
    335000   296.56066     -7407.587       546          
    336000   241.43058     -7421.7668      546          
    337000   315.61386     -7402.2236      546          
    338000   281.59484     -7408.2096      546          
    339000   294.17468     -7408.9192      546          
    340000   269.4645      -7412.3696      546          
    341000   301.55038     -7406.3295      546          
    342000   297.19068     -7415.8579      547          
    343000   315.44184     -7406.6231      547          
    344000   278.35456     -7420.5548      547          
    345000   292.84364     -7418.068       547          
    346000   297.81631     -7417.4494      547          
    347000   315.22389     -7410.8687      547          
    348000   345.84951     -7401.0366      547          
    349000   277.53282     -7420.5924      547          
    350000   273.48957     -7426.8125      547          
    351000   336.37137     -7406.0768      547          
    352000   309.27042     -7415.8673      547          
    353000   336.09221     -7410.987       547          
    354000   308.19005     -7416.5477      547          
    355000   318.40193     -7412.971       547          
    356000   295.42984     -7420.3677      547          
    357000   300.73557     -7416.6187      547          
    358000   314.4654      -7426.7241      548          
    359000   263.96962     -7440.4636      548          
    360000   357.33084     -7414.9918      548          
    361000   303.86715     -7430.9892      548          
    362000   319.52055     -7426.9397      548          
    363000   268.44491     -7441.36        548          
    364000   322.92861     -7424.4524      548          
    365000   313.91925     -7426.9276      548          
    366000   278.67242     -7438.2328      548          
    367000   296.27316     -7434.2913      548          
    368000   290.8361      -7433.9119      548          
    369000   296.73564     -7430.1403      548          
    370000   386.39528     -7417.579       549          
    371000   270.69236     -7451.0718      549          
    372000   348.06863     -7430.5082      549          
    373000   312.67422     -7438.9173      549          
    374000   289.51877     -7447.5008      549          
    375000   297.86935     -7441.3531      549          
    376000   320.46882     -7437.1223      549          
    377000   314.8019      -7438.3904      549          
    378000   334.28016     -7434.1225      549          
    379000   311.16062     -7439.2955      549          
    380000   326.88582     -7438.6974      549          
    381000   327.06338     -7433.5852      549          
    382000   321.59291     -7435.715       549          
    383000   295.93556     -7446.2744      549          
    384000   277.5449      -7450.8635      549          
    385000   304.53004     -7438.5059      549          
    386000   258.92453     -7455.534       549          
    387000   341.93019     -7428.5941      549          
    388000   268.84362     -7451.3782      549          
    389000   303.60758     -7439.649       549          
    390000   319.15662     -7438.0924      549          
    391000   277.12225     -7450.7772      549          
    392000   287.3656      -7446.8348      549          
    393000   337.07991     -7430.4671      549          
    394000   331.6092      -7435.9841      549          
    395000   314.98212     -7438.5659      549          
    396000   333.79924     -7435.0232      549          
    397000   278.57384     -7444.93        549          
    398000   347.34808     -7439.1755      550          
    399000   292.37072     -7458.444       550          
    400000   294.87727     -7458.3902      550          
    401000   262.13199     -7482.2561      551          
    402000   301.05025     -7472.8296      551          
    403000   292.7261      -7477.5234      551          
    404000   294.92556     -7473.9319      551          
    405000   337.3405      -7465.3648      551          
    406000   259.55632     -7482.8383      551          
    407000   353.2184      -7460.9031      551          
    408000   312.73643     -7477.645       551          
    409000   279.8344      -7487.5965      551          
    410000   310.78425     -7472.381       551          
    411000   314.91175     -7477.7551      551          
    412000   274.19327     -7500.5656      552          
    413000   308.93519     -7498.9813      553          
    414000   318.07161     -7492.9751      553          
    415000   316.56604     -7496.0299      553          
    416000   295.95174     -7503.5806      553          
    417000   321.37854     -7499.9628      553          
    418000   302.03593     -7499.7774      553          
    419000   345.0466      -7494.7663      554          
    420000   268.48181     -7527.7448      554          
    421000   279.98272     -7527.8722      554          
    422000   256.5992      -7536.6152      554          
    423000   322.26458     -7521.3781      554          
    424000   302.30052     -7523.4476      554          
    425000   311.74054     -7515.3343      554          
    426000   313.94026     -7522.424       554          
    427000   298.8984      -7527.578       554          
    428000   336.63083     -7512.993       554          
    429000   257.55764     -7538.0603      554          
    430000   322.62935     -7520.4753      554          
    431000   302.23557     -7524.483       554          
    432000   278.70091     -7528.9257      554          
    433000   323.36063     -7519.4942      554          
    434000   304.6302      -7521.3867      554          
    435000   304.49611     -7521.977       554          
    436000   351.43349     -7512.1123      554          
    437000   304.15609     -7523.2123      554          
    438000   337.91606     -7513.156       554          
    439000   301.01003     -7524.0569      554          
    440000   315.16929     -7524.695       554          
    441000   296.61662     -7528.9878      554          
    442000   286.96259     -7524.3348      554          
    443000   338.00494     -7510.306       554          
    444000   284.90296     -7530.9956      554          
    445000   287.01399     -7527.4926      554          
    446000   310.79073     -7525.7718      554          
    447000   309.4853      -7524.876       554          
    448000   289.51462     -7524.9872      554          
    449000   281.83333     -7532.29        554          
    450000   349.97069     -7511.0175      554          
    451000   297.39614     -7527.9758      554          
    452000   294.70111     -7525.2797      554          
    453000   329.96193     -7519.5405      554          
    454000   284.16983     -7530.8772      554          
    455000   270.70825     -7531.3209      554          
    456000   305.01567     -7524.2455      554          
    457000   337.22884     -7513.5545      554          
    458000   306.56503     -7526.5325      554          
    459000   329.28645     -7513.9408      554          
    460000   258.48145     -7538.0995      554          
    461000   320.53629     -7518.5397      554          
    462000   321.13017     -7521.3989      554          
    463000   335.72991     -7527.5202      555          
    464000   328.81881     -7529.2886      555          
    465000   325.45781     -7531.742       555          
    466000   267.40039     -7548.5276      555          
    467000   341.829       -7527.2159      555          
    468000   298.28263     -7537.2468      555          
    469000   330.75493     -7530.4416      555          
    470000   336.72957     -7528.9521      555          
    471000   290.48258     -7539.2816      555          
    472000   299.69379     -7535.9931      555          
    473000   289.17865     -7540.0165      555          
    474000   300.35979     -7537.8903      555          
    475000   310.21423     -7536.265       555          
    476000   299.54874     -7541.2187      555          
    477000   330.18146     -7527.4288      555          
    478000   334.99183     -7531.7718      555          
    479000   329.44265     -7537.9932      555          
    480000   291.40924     -7547.9203      555          
    481000   297.44526     -7541.4022      555          
    482000   315.69209     -7538.9055      555          
    483000   283.40463     -7546.9592      555          
    484000   315.38892     -7541.3483      555          
    485000   317.90307     -7537.3935      555          
    486000   273.23167     -7551.2188      555          
    487000   325.6936      -7537.9083      555          
    488000   282.95612     -7552.29        555          
    489000   329.4443      -7538.5902      555          
    490000   333.19627     -7535.5155      555          
    491000   310.5077      -7545.6413      555          
    492000   317.95132     -7547.9931      556          
    493000   286.58299     -7562.3012      556          
    494000   286.24969     -7561.5132      556          
    495000   314.58407     -7555.9431      556          
    496000   284.10868     -7560.3092      556          
    497000   279.69194     -7563.8304      556          
    498000   286.42335     -7559.3251      556          
    499000   283.07622     -7560.4766      556          
    500000   355.00903     -7558.186       557          
    501000   296.01195     -7575.475       557          
    502000   319.62284     -7571.4119      557          
    503000   276.55055     -7592.277       558          
    504000   331.99033     -7572.3346      558          
    505000   281.23603     -7593.7912      558          
    506000   283.47411     -7592.2044      558          
    507000   324.41106     -7578.1404      558          
    508000   298.09905     -7586.7151      558          
    509000   315.16627     -7583.3802      558          
    510000   294.53466     -7591.4682      558          
    511000   315.76345     -7583.0616      558          
    512000   321.38628     -7579.2016      558          
    513000   243.79228     -7600.0772      558          
    514000   343.07995     -7574.5692      558          
    515000   318.18226     -7585.2659      558          
    516000   342.60565     -7573.4598      558          
    517000   284.59614     -7588.8241      558          
    518000   299.15247     -7586.9353      558          
    519000   244.19183     -7603.4059      558          
    520000   318.22349     -7580.1843      558          
    521000   248.17981     -7595.2052      558          
    522000   321.91582     -7591.4648      559          
    523000   283.41572     -7608.8754      559          
    524000   307.89043     -7601.8836      559          
    525000   333.59921     -7590.7583      559          
    526000   301.41136     -7600.5975      559          
    527000   322.92626     -7597.7818      559          
    528000   253.85691     -7614.177       559          
    529000   320.75187     -7593.6397      559          
    530000   338.23143     -7602.4188      560          
    531000   295.64669     -7609.9029      560          
    532000   297.40902     -7613.6339      560          
    533000   275.07933     -7619.8815      560          
    534000   305.16436     -7605.0855      560          
    535000   324.02593     -7606.1587      560          
    536000   341.6246      -7599.7718      560          
    537000   294.25047     -7610.9505      560          
    538000   299.60486     -7609.3005      560          
    539000   306.60681     -7610.722       560          
    540000   330.53449     -7596.6931      560          
    541000   338.01139     -7593.8299      560          
    542000   288.44267     -7614.4896      560          
    543000   330.03182     -7602.3034      560          
    544000   276.10332     -7617.393       560          
    545000   305.78876     -7606.5142      560          
    546000   340.98442     -7593.9836      560          
    547000   288.39992     -7616.4304      560          
    548000   326.47299     -7601.8577      560          
    549000   291.69526     -7610.757       560          
    550000   330.63852     -7616.1362      561          
    551000   281.59492     -7629.0956      561          
    552000   340.95737     -7609.275       561          
    553000   304.62868     -7621.8045      561          
    554000   282.95059     -7628.59        561          
    555000   304.12121     -7623.2454      561          
    556000   271.84204     -7633.8475      561          
    557000   312.23731     -7615.314       561          
    558000   305.01263     -7620.1585      561          
    559000   284.38069     -7624.0629      561          
    560000   276.37283     -7626.6056      561          
    561000   300.39004     -7621.0405      561          
    562000   310.94784     -7619.964       561          
    563000   298.02452     -7620.5873      561          
    564000   304.83721     -7620.7517      561          
    565000   278.31769     -7631.4115      561          
    566000   302.1404      -7623.2926      561          
    567000   297.95368     -7616.3155      561          
    568000   269.51161     -7629.6523      561          
    569000   324.90113     -7617.2018      561          
    570000   307.77803     -7622.5109      561          
    571000   288.56079     -7624.9907      561          
    572000   340.74416     -7608.7506      561          
    573000   290.75125     -7628.1428      561          
    574000   333.84451     -7613.8398      561          
    575000   337.02206     -7612.7253      561          
    576000   311.54115     -7624.0792      561          
    577000   314.98767     -7617.1432      561          
    578000   320.26478     -7617.503       561          
    579000   315.66245     -7617.4797      561          
    580000   307.06916     -7621.0298      561          
    581000   313.28595     -7620.2222      561          
    582000   255.37749     -7634.4654      561          
    583000   342.72625     -7609.3915      561          
    584000   279.32314     -7631.6471      561          
    585000   349.07485     -7608.3915      561          
    586000   326.88989     -7613.9085      561          
    587000   305.92061     -7622.4589      561          
    588000   346.57947     -7612.2973      561          
    589000   283.5721      -7623.9646      561          
    590000   346.79932     -7609.6893      561          
    591000   349.67891     -7606.0213      561          
    592000   311.67044     -7620.8347      561          
    593000   324.67606     -7618.3131      561          
    594000   357.94364     -7608.1126      561          
    595000   294.30265     -7625.2884      561          
    596000   368.6539      -7605.6626      561          
    597000   291.3041      -7626.9072      561          
    598000   330.53938     -7610.7419      561          
    599000   284.20324     -7628.5207      561          
    600000   291.69247     -7624.2418      561          
    601000   311.11195     -7615.3639      561          
    602000   335.1048      -7613.502       561          
    603000   331.05205     -7617.499       561          
    604000   309.25752     -7622.9545      561          
    605000   311.57527     -7618.3941      561          
    606000   317.08401     -7615.1708      561          
    607000   279.37883     -7629.7085      561          
    608000   320.51446     -7614.1083      561          
    609000   329.8701      -7616.2833      561          
    610000   296.63641     -7626.4491      561          
    611000   296.79789     -7619.9885      561          
    612000   314.96009     -7617.5204      561          
    613000   301.67672     -7625.7038      561          
    614000   310.47474     -7619.715       561          
    615000   312.27484     -7618.4515      561          
    616000   316.37739     -7615.0012      561          
    617000   311.45843     -7621.7159      561          
    618000   317.41237     -7621.945       561          
    619000   281.12778     -7627.9854      561          
    620000   321.49162     -7616.8176      561          
    621000   320.92572     -7620.1437      561          
    622000   288.34793     -7635.389       562          
    623000   385.35867     -7610.0028      562          
    624000   320.24527     -7631.9162      562          
    625000   348.62825     -7625.1164      562          
    626000   323.63326     -7633.8268      562          
    627000   272.96826     -7643.2756      562          
    628000   301.55693     -7643.1373      563          
    629000   311.19861     -7645.549       563          
    630000   318.08357     -7645.3598      563          
    631000   318.10562     -7644.5957      563          
    632000   259.20673     -7674.1406      564          
    633000   293.44637     -7666.8815      564          
    634000   280.06554     -7665.3205      564          
    635000   307.30879     -7662.9197      564          
    636000   293.74209     -7666.0644      564          
    637000   295.48681     -7667.1007      564          
    638000   283.82526     -7667.1676      564          
    639000   323.96932     -7659.3718      564          
    640000   288.41087     -7667.6991      564          
    641000   302.04484     -7661.891       564          
    642000   322.44469     -7657.8879      564          
    643000   344.61087     -7651.0596      564          
    644000   311.37081     -7670.5877      565          
    645000   304.80721     -7672.4022      565          
    646000   314.13184     -7676.8156      565          
    647000   333.14298     -7666.565       565          
    648000   307.39551     -7673.1763      565          
    649000   293.69354     -7679.0215      565          
    650000   354.41652     -7663.7892      565          
    651000   257.75773     -7689.833       565          
    652000   336.82708     -7665.2314      565          
    653000   269.85973     -7687.4522      565          
    654000   308.65826     -7673.347       565          
    655000   286.84705     -7680.1472      565          
    656000   284.08734     -7681.1367      565          
    657000   305.25237     -7676.6608      565          
    658000   282.6535      -7682.47        565          
    659000   309.38182     -7678.1549      565          
    660000   314.99947     -7680.1427      565          
    661000   328.63587     -7672.2233      565          
    662000   277.44127     -7690.5126      565          
    663000   317.25785     -7672.1055      565          
    664000   308.05801     -7679.5389      565          
    665000   295.55992     -7685.5902      565          
    666000   317.86786     -7673.2994      565          
    667000   300.59879     -7683.2195      565          
    668000   306.00726     -7683.5051      565          
    669000   320.60912     -7673.0266      565          
    670000   316.90924     -7673.5738      565          
    671000   335.07031     -7675.0356      565          
    672000   267.26943     -7693.0591      565          
    673000   319.38663     -7668.8148      565          
    674000   286.95631     -7686.1657      565          
    675000   304.09968     -7680.4555      565          
    676000   350.08573     -7669.7785      565          
    677000   295.40322     -7684.2932      565          
    678000   307.52358     -7671.2473      565          
    679000   281.05237     -7688.929       565          
    680000   326.62839     -7671.626       565          
    681000   262.12129     -7695.0347      565          
    682000   329.74174     -7675.0051      565          
    683000   314.82652     -7679.0253      565          
    684000   321.14051     -7675.7965      565          
    685000   354.13885     -7662.7456      565          
    686000   309.74792     -7679.236       565          
    687000   339.30114     -7673.9852      565          
    688000   323.75028     -7674.8942      565          
    689000   271.90094     -7689.342       565          
    690000   273.05465     -7690.3746      565          
    691000   290.99364     -7683.5425      565          
    692000   315.8597      -7677.1542      565          
    693000   292.27626     -7686.7627      565          
    694000   291.31856     -7685.3174      565          
    695000   272.0633      -7691.0322      565          
    696000   300.17202     -7683.2472      565          
    697000   286.96021     -7682.8414      565          
    698000   299.73258     -7682.3338      565          
    699000   283.8987      -7683.0729      565          
    700000   307.98137     -7677.6765      565          
    701000   311.75992     -7679.2187      565          
    702000   296.53054     -7678.9578      565          
    703000   301.6344      -7680.7881      565          
    704000   300.12859     -7680.7019      565          
    705000   295.74253     -7683.9536      565          
    706000   359.60181     -7661.4598      565          
    707000   294.17906     -7681.7883      565          
    708000   304.29273     -7679.052       565          
    709000   296.19687     -7684.3168      565          
    710000   291.0359      -7682.8828      565          
    711000   328.96763     -7674.451       565          
    712000   258.62144     -7695.6054      565          
    713000   261.63389     -7692.3487      565          
    714000   275.58181     -7693.1248      565          
    715000   285.57984     -7680.5526      565          
    716000   296.6683      -7681.0402      565          
    717000   297.18943     -7685.6356      565          
    718000   349.4065      -7673.9695      565          
    719000   327.45361     -7672.9868      565          
    720000   348.043       -7666.462       565          
    721000   288.66581     -7686.9174      565          
    722000   355.07635     -7664.1609      565          
    723000   289.38965     -7686.0511      565          
    724000   292.09286     -7681.4103      565          
    725000   305.00209     -7675.6437      565          
    726000   288.44409     -7689.8521      565          
    727000   308.68812     -7681.5859      565          
    728000   260.02279     -7694.6675      565          
    729000   306.70834     -7679.2601      565          
    730000   308.85699     -7679.4041      565          
    731000   307.76008     -7680.6674      565          
    732000   340.68627     -7672.8766      565          
    733000   315.21696     -7676.8891      565          
    734000   297.02221     -7683.8437      565          
    735000   323.3737      -7678.1848      565          
    736000   285.45228     -7686.2074      565          
    737000   314.19735     -7679.1399      565          
    738000   332.97572     -7669.2091      565          
    739000   275.77935     -7690.8642      565          
    740000   286.13268     -7689.1995      565          
    741000   307.93654     -7676.1175      565          
    742000   292.77349     -7682.0179      565          
    743000   334.30351     -7673.0146      565          
    744000   307.42004     -7682.462       565          
    745000   268.5158      -7689.8162      565          
    746000   336.80915     -7671.3272      565          
    747000   299.46543     -7680.8504      565          
    748000   289.68497     -7685.6258      565          
    749000   292.7289      -7686.024       565          
    750000   300.96403     -7684.7358      565          
    751000   305.92738     -7677.7681      565          
    752000   324.23782     -7676.1797      565          
    753000   243.93593     -7699.4105      565          
    754000   310.77552     -7676.8745      565          
    755000   294.61538     -7684.8068      565          
    756000   342.16756     -7669.3609      565          
    757000   312.59787     -7683.6869      565          
    758000   314.54942     -7679.6296      565          
    759000   291.74272     -7685.7915      565          
    760000   299.31485     -7682.4464      565          
    761000   311.4908      -7680.5329      565          
    762000   304.12001     -7681.4129      565          
    763000   285.03142     -7686.2206      565          
    764000   281.72261     -7687.3824      565          
    765000   294.64841     -7682.1077      565          
    766000   333.79452     -7670.483       565          
    767000   296.75721     -7699.1836      566          
    768000   335.86315     -7690.8484      566          
    769000   296.57273     -7701.1668      566          
    770000   290.68079     -7703.4814      566          
    771000   295.47974     -7702.7205      566          
    772000   300.47675     -7698.0742      566          
    773000   284.16158     -7703.5346      566          
    774000   350.43076     -7685.807       566          
    775000   299.25404     -7704.1782      566          
    776000   343.50087     -7687.0316      566          
    777000   304.33045     -7701.647       566          
    778000   302.11902     -7701.9138      566          
    779000   306.29359     -7698.0358      566          
    780000   288.75965     -7702.9643      566          
    781000   344.22439     -7687.0165      566          
    782000   325.65894     -7693.4993      566          
    783000   306.9995      -7698.5291      566          
    784000   295.22377     -7703.8407      566          
    785000   365.64358     -7680.3819      566          
    786000   266.4584      -7709.8691      566          
    787000   303.00115     -7702.2192      566          
    788000   300.01771     -7694.5189      566          
    789000   315.61273     -7695.8373      566          
    790000   302.37752     -7700.7323      566          
    791000   315.82782     -7692.4974      566          
    792000   311.28652     -7700.2257      566          
    793000   330.54235     -7693.4506      566          
    794000   313.03227     -7693.7204      566          
    795000   295.81398     -7702.4821      566          
    796000   315.78803     -7697.9847      566          
    797000   320.70181     -7696.2587      566          
    798000   299.82994     -7700.605       566          
    799000   303.27489     -7697.2817      566          
    800000   329.28151     -7692.0382      566          
    801000   335.46344     -7688.8763      566          
    802000   292.2094      -7704.3685      566          
    803000   317.30185     -7693.8717      566          
    804000   305.16656     -7702.3365      566          
    805000   306.06008     -7703.3006      566          
    806000   337.06919     -7685.7077      566          
    807000   340.34835     -7689.5912      566          
    808000   327.55792     -7710.5476      567          
    809000   294.75428     -7716.0006      567          
    810000   309.77762     -7712.4478      567          
    811000   263.91882     -7726.5882      567          
    812000   311.87611     -7712.9403      567          
    813000   330.04337     -7704.3468      567          
    814000   325.00535     -7710.739       567          
    815000   306.52971     -7712.9453      567          
    816000   326.32187     -7708.0385      567          
    817000   283.52531     -7721.0825      567          
    818000   353.20049     -7700.834       567          
    819000   256.51717     -7726.8142      567          
    820000   323.13452     -7710.1415      567          
    821000   282.88138     -7720.3931      567          
    822000   320.47302     -7710.6123      567          
    823000   284.20985     -7721.0188      567          
    824000   347.10418     -7705.3806      567          
    825000   278.50846     -7724.3287      567          
    826000   358.93025     -7697.1019      567          
    827000   294.91983     -7719.6979      567          
    828000   332.67255     -7702.8874      567          
    829000   306.85942     -7713.1899      567          
    830000   310.74643     -7712.3347      567          
    831000   299.25202     -7715.2433      567          
    832000   315.20688     -7713.5772      567          
    833000   298.9049      -7716.5258      567          
    834000   323.48148     -7711.1038      567          
    835000   289.72696     -7717.1846      567          
    836000   305.92737     -7715.2172      567          
    837000   266.21681     -7729.7506      567          
    838000   294.76863     -7712.1661      567          
    839000   337.4674      -7699.2384      567          
    840000   268.38964     -7726.6222      567          
    841000   340.51051     -7702.9554      567          
    842000   337.98224     -7708.6317      567          
    843000   298.61032     -7719.0935      567          
    844000   343.89719     -7705.9319      567          
    845000   328.13255     -7711.9099      567          
    846000   294.92252     -7717.2456      567          
    847000   288.85049     -7716.0177      567          
    848000   292.24634     -7717.3948      567          
    849000   298.64284     -7716.841       567          
    850000   320.62929     -7712.438       567          
    851000   287.80154     -7718.4045      567          
    852000   284.11037     -7722.4178      567          
    853000   276.15465     -7725.1817      567          
    854000   292.85593     -7716.297       567          
    855000   347.35307     -7704.535       567          
    856000   321.98995     -7708.1048      567          
    857000   337.88362     -7709.0922      567          
    858000   255.04974     -7732.2547      567          
    859000   329.40316     -7708.9784      567          
    860000   245.17939     -7732.2611      567          
    861000   323.17479     -7709.0198      567          
    862000   267.83918     -7723.6541      567          
    863000   298.03794     -7717.899       567          
    864000   339.86394     -7707.7125      567          
    865000   298.32552     -7714.6833      567          
    866000   311.27381     -7712.8042      567          
    867000   274.67993     -7721.6829      567          
    868000   309.50892     -7712.4679      567          
    869000   292.28545     -7715.7457      567          
    870000   332.29139     -7705.5882      567          
    871000   323.19621     -7709.3499      567          
    872000   341.30475     -7705.5558      567          
    873000   303.14267     -7717.2242      567          
    874000   325.37925     -7709.9769      567          
    875000   284.88145     -7722.482       567          
    876000   298.60383     -7710.4268      567          
    877000   283.42683     -7720.7856      567          
    878000   296.06267     -7715.9829      567          
    879000   314.06964     -7716.3254      567          
    880000   294.53741     -7719.2461      567          
    881000   271.3443      -7727.7921      567          
    882000   307.92776     -7710.6451      567          
    883000   280.10293     -7721.0156      567          
    884000   305.72288     -7715.0648      567          
    885000   270.91875     -7724.1015      567          
    886000   315.69201     -7711.7785      567          
    887000   338.6556      -7703.6846      567          
    888000   283.82996     -7721.2673      567          
    889000   339.90459     -7706.4739      567          
    890000   287.88928     -7719.0025      567          
    891000   310.44392     -7713.0724      567          
    892000   287.60002     -7721.1332      567          
    893000   307.6108      -7711.2278      567          
    894000   326.91042     -7706.0634      567          
    895000   315.87286     -7711.8342      567          
    896000   276.19738     -7721.9012      567          
    897000   356.22722     -7702.2374      567          
    898000   288.27418     -7718.4756      567          
    899000   268.1572      -7725.8365      567          
    900000   357.73141     -7701.7326      567          
    901000   278.55677     -7718.2778      567          
    902000   301.34868     -7712.7995      567          
    903000   300.91391     -7715.9759      567          
    904000   287.39951     -7720.0009      567          
    905000   254.86671     -7731.6275      567          
    906000   313.26237     -7712.6712      567          
    907000   327.66079     -7706.5592      567          
    908000   315.61918     -7712.9396      567          
    909000   302.38627     -7717.1016      567          
    910000   313.84483     -7708.2961      567          
    911000   327.55041     -7709.2425      567          
    912000   284.97196     -7723.0847      567          
    913000   333.33672     -7710.2772      567          
    914000   269.52124     -7725.3747      567          
    915000   321.8256      -7709.3548      567          
    916000   270.25579     -7725.273       567          
    917000   344.64522     -7705.0272      567          
    918000   292.15742     -7718.0297      567          
    919000   331.76462     -7706.6405      567          
    920000   308.65332     -7713.9068      567          
    921000   276.63089     -7725.5208      567          
    922000   311.2722      -7714.2785      567          
    923000   323.40804     -7712.0335      567          
    924000   359.69387     -7699.1217      567          
    925000   308.65502     -7714.5421      567          
    926000   360.68373     -7698.003       567          
    927000   284.46664     -7720.5203      567          
    928000   293.59775     -7719.846       567          
    929000   278.39879     -7720.357       567          
    930000   279.26438     -7721.7387      567          
    931000   271.72216     -7727.9417      567          
    932000   305.66796     -7717.108       567          
    933000   321.83656     -7705.6642      567          
    934000   290.97964     -7717.1597      567          
    935000   311.91095     -7715.0663      567          
    936000   314.6289      -7714.8123      567          
    937000   283.75168     -7722.2065      567          
    938000   315.77226     -7707.8077      567          
    939000   319.79783     -7715.7609      567          
    940000   348.07365     -7700.1445      567          
    941000   323.84636     -7710.5221      567          
    942000   291.93995     -7720.192       567          
    943000   290.10749     -7719.3801      567          
    944000   287.64003     -7720.3174      567          
    945000   336.04182     -7703.7152      567          
    946000   325.50576     -7712.8838      567          
    947000   292.53413     -7721.7094      567          
    948000   378.95257     -7699.0816      567          
    949000   279.8465      -7722.0346      567          
    950000   306.49078     -7715.2332      567          
    951000   312.74529     -7716.1676      567          
    952000   292.92213     -7711.1496      567          
    953000   313.88299     -7712.7247      567          
    954000   300.89511     -7717.6099      567          
    955000   299.19523     -7720.3105      567          
    956000   311.09186     -7712.9517      567          
    957000   290.35042     -7716.7004      567          
    958000   281.86061     -7719.1343      567          
    959000   280.95265     -7719.3848      567          
    960000   286.508       -7722.7725      567          
    961000   301.35202     -7708.7735      567          
    962000   306.09501     -7716.237       567          
    963000   311.90387     -7713.8792      567          
    964000   305.21453     -7717.7437      567          
    965000   298.26899     -7717.178       567          
    966000   364.32116     -7692.3271      567          
    967000   269.32644     -7723.7509      567          
    968000   316.21838     -7713.3663      567          
    969000   337.32384     -7704.239       567          
    970000   292.29654     -7721.8996      567          
    971000   361.77079     -7697.4528      567          
    972000   297.42007     -7718.0197      567          
    973000   296.42466     -7717.3684      567          
    974000   285.92161     -7718.5237      567          
    975000   343.10863     -7705.3025      567          
    976000   281.34559     -7719.3052      567          
    977000   329.03963     -7708.8568      567          
    978000   268.70809     -7724.1796      567          
    979000   291.22888     -7721.1897      567          
    980000   341.24551     -7699.7332      567          
    981000   297.97104     -7716.9938      567          
    982000   290.98831     -7730.1877      568          
    983000   271.59565     -7732.8074      568          
    984000   332.96175     -7713.2354      568          
    985000   287.75555     -7730.5121      568          
    986000   295.26777     -7725.8667      568          
    987000   335.53723     -7711.7572      568          
    988000   256.9934      -7733.8344      568          
    989000   258.44383     -7736.5059      568          
    990000   311.2644      -7718.5911      568          
    991000   315.48469     -7720.2085      568          
    992000   321.07694     -7717.4539      568          
    993000   291.37128     -7726.0091      568          
    994000   324.38606     -7718.4307      568          
    995000   339.23155     -7711.6837      568          
    996000   292.8901      -7729.9881      568          
    997000   289.93564     -7731.3076      568          
    998000   361.27603     -7713.5197      568          
    999000   301.77289     -7725.7069      568          
   1000000   290.15888     -7737.2378      568          
   1001000   320.50776     -7725.6743      568          
   1002000   306.18772     -7728.4153      568          
   1003000   333.3679      -7726.3102      568          
   1004000   317.39621     -7728.5967      568          
   1005000   308.86457     -7735.9182      568          
   1006000   329.30389     -7726.3147      568          
   1007000   297.57386     -7738.2299      568          
   1008000   316.8784      -7731.204       568          
   1009000   308.73874     -7736.8505      568          
   1010000   322.71196     -7729.7066      568          
   1011000   316.48713     -7730.2364      568          
   1012000   315.38214     -7733.5924      568          
   1013000   318.65403     -7731.8045      568          
   1014000   284.61053     -7739.9098      568          
   1015000   302.44029     -7735.2678      568          
   1016000   310.56543     -7734.0596      568          
   1017000   360.7197      -7717.4399      568          
   1018000   296.52984     -7735.2897      568          
   1019000   347.86888     -7726.5459      568          
   1020000   316.39667     -7730.7203      568          
   1021000   259.09068     -7748.7982      568          
   1022000   286.24514     -7736.8025      568          
   1023000   323.19245     -7729.1168      568          
   1024000   258.14551     -7748.0747      568          
   1025000   333.78642     -7725.242       568          
   1026000   269.02539     -7747.0482      568          
   1027000   328.89632     -7726.0949      568          
   1028000   335.97158     -7729.2618      568          
   1029000   325.16613     -7733.55        568          
   1030000   336.96022     -7730.8283      568          
   1031000   293.99806     -7738.0272      568          
   1032000   315.69323     -7737.9531      568          
   1033000   296.61533     -7744.4751      568          
   1034000   334.71331     -7729.0932      568          
   1035000   315.59547     -7733.9639      568          
   1036000   294.74177     -7741.5257      568          
   1037000   288.75578     -7745.7412      568          
   1038000   325.31983     -7735.4845      568          
   1039000   303.35289     -7740.4651      568          
   1040000   303.90542     -7740.4576      568          
   1041000   291.84907     -7740.9379      568          
   1042000   283.35013     -7750.3314      569          
   1043000   275.44076     -7760.9462      569          
   1044000   289.98425     -7755.0394      569          
   1045000   311.97083     -7751.9671      569          
   1046000   314.54486     -7750.6932      569          
   1047000   298.32762     -7753.5562      569          
   1048000   298.96921     -7751.704       569          
   1049000   310.24947     -7751.4703      569          
   1050000   378.99104     -7734.2088      569          
   1051000   317.64984     -7752.0009      569          
   1052000   313.24182     -7752.8734      569          
   1053000   267.24523     -7763.6623      569          
   1054000   307.90185     -7748.0423      569          
   1055000   311.21737     -7746.4108      569          
   1056000   300.88461     -7755.5406      569          
   1057000   317.06626     -7748.9982      569          
   1058000   287.74885     -7755.8725      569          
   1059000   306.99845     -7751.0742      569          
   1060000   309.23299     -7752.4026      569          
   1061000   339.91661     -7739.0076      569          
   1062000   288.8458      -7759.2204      569          
   1063000   304.13133     -7744.8582      569          
   1064000   267.58097     -7764.2986      569          
   1065000   306.85718     -7752.248       569          
   1066000   298.04122     -7751.8204      569          
   1067000   289.33941     -7754.2577      569          
   1068000   365.47629     -7735.7478      569          
   1069000   275.90322     -7756.2281      569          
   1070000   308.54863     -7749.2108      569          
   1071000   285.04093     -7754.7583      569          
   1072000   315.87776     -7749.027       569          
   1073000   306.07792     -7751.1888      569          
   1074000   264.75965     -7762.7339      569          
   1075000   314.63909     -7748.7983      569          
   1076000   283.65569     -7759.4918      569          
   1077000   300.14056     -7755.8501      569          
   1078000   341.11735     -7738.1384      569          
   1079000   293.70808     -7756.6315      569          
   1080000   322.72509     -7756.2973      570          
   1081000   277.41102     -7769.9294      570          
   1082000   294.53989     -7764.9206      570          
   1083000   356.2193      -7747.9786      570          
   1084000   338.3062      -7757.7157      570          
   1085000   318.92182     -7758.8315      570          
   1086000   343.64831     -7753.4656      570          
   1087000   321.88814     -7757.1182      570          
   1088000   322.61058     -7761.9067      570          
   1089000   269.71894     -7770.7371      570          
   1090000   333.75848     -7753.8545      570          
   1091000   245.89863     -7778.1826      570          
   1092000   326.52722     -7755.8653      570          
   1093000   313.31405     -7756.3685      570          
   1094000   283.77415     -7770.2443      570          
   1095000   339.72297     -7752.1099      570          
   1096000   271.8026      -7772.1332      570          
   1097000   296.67445     -7768.6328      570          
   1098000   350.35911     -7748.7124      570          
   1099000   258.24494     -7776.0871      570          
   1100000   296.76494     -7765.8276      570          
   1101000   310.37989     -7760.9609      570          
   1102000   329.29626     -7758.2042      570          
   1103000   305.39416     -7763.0228      570          
   1104000   308.14493     -7762.0171      570          
   1105000   306.14645     -7760.6241      570          
   1106000   338.29446     -7755.3005      570          
   1107000   328.01328     -7750.8755      570          
   1108000   314.78237     -7760.213       570          
   1109000   305.8021      -7764.9726      570          
   1110000   289.38899     -7766.8224      570          
   1111000   321.78163     -7754.9487      570          
   1112000   283.29438     -7765.1129      570          
   1113000   327.33602     -7759.7174      570          
   1114000   316.26656     -7758.5058      570          
   1115000   314.91069     -7761.1494      570          
   1116000   309.87291     -7764.3997      570          
   1117000   299.07902     -7764.5298      570          
   1118000   292.85189     -7766.3591      570          
   1119000   304.46672     -7758.1509      570          
   1120000   317.64691     -7764.3077      570          
   1121000   321.87818     -7762.4115      570          
   1122000   311.40595     -7759.1682      570          
   1123000   341.22361     -7752.6107      570          
   1124000   293.89679     -7766.2904      570          
   1125000   377.84056     -7746.8077      570          
   1126000   295.67493     -7765.8564      570          
   1127000   324.96211     -7753.1717      570          
   1128000   296.77783     -7768.0538      570          
   1129000   294.44161     -7770.0378      570          
   1130000   294.70718     -7764.4684      570          
   1131000   299.39235     -7764.9172      570          
   1132000   286.7359      -7772.1295      570          
   1133000   282.89939     -7773.5237      570          
   1134000   262.40108     -7777.6534      570          
   1135000   316.76649     -7759.6225      570          
   1136000   297.01696     -7765.4404      570          
   1137000   310.03082     -7763.011       570          
   1138000   252.56933     -7779.0995      570          
   1139000   325.80714     -7756.8611      570          
   1140000   271.39813     -7772.3724      570          
   1141000   310.97706     -7758.5981      570          
   1142000   260.04805     -7776.085       570          
   1143000   313.93567     -7762.2259      570          
   1144000   284.91706     -7768.9736      570          
   1145000   300.24263     -7765.7303      570          
   1146000   349.76937     -7750.3064      570          
   1147000   295.35054     -7774.7983      571          
   1148000   322.14021     -7772.943       571          
   1149000   271.02647     -7786.222       571          
   1150000   301.70573     -7778.9651      571          
   1151000   304.91264     -7777.9657      571          
   1152000   279.21022     -7781.5884      571          
   1153000   331.73392     -7767.7008      571          
   1154000   304.08712     -7775.6449      571          
   1155000   318.53969     -7774.7026      571          
   1156000   354.90337     -7763.7728      571          
   1157000   319.09202     -7775.8819      571          
   1158000   290.47157     -7779.04        571          
   1159000   344.7259      -7765.2426      571          
   1160000   245.49582     -7795.9512      571          
   1161000   350.25132     -7759.9877      571          
   1162000   324.43879     -7771.024       571          
   1163000   298.95181     -7784.2501      571          
   1164000   238.31955     -7800.3694      571          
   1165000   319.1257      -7771.3927      571          
   1166000   292.91316     -7782.3034      571          
   1167000   298.34708     -7778.8656      571          
   1168000   311.82352     -7773.4626      571          
   1169000   281.62353     -7785.5697      571          
   1170000   311.40141     -7774.6097      571          
   1171000   354.66127     -7765.4911      571          
   1172000   297.79395     -7778.4345      571          
   1173000   296.00816     -7780.4087      571          
   1174000   316.62116     -7769.2298      571          
   1175000   320.65482     -7777.2291      571          
   1176000   328.38238     -7772.1348      571          
   1177000   330.14983     -7772.5561      571          
   1178000   303.60561     -7775.5631      571          
   1179000   262.77527     -7792.9086      571          
   1180000   322.20098     -7776.945       571          
   1181000   291.69112     -7780.9384      571          
   1182000   324.33308     -7768.8158      571          
   1183000   291.59073     -7783.2361      571          
   1184000   286.59542     -7780.5218      571          
   1185000   325.86477     -7771.5451      571          
   1186000   258.21349     -7792.5349      571          
   1187000   341.37146     -7764.8947      571          
   1188000   309.17782     -7778.2358      571          
   1189000   274.34233     -7788.0824      571          
   1190000   331.75149     -7769.9235      571          
   1191000   284.07455     -7784.3555      571          
   1192000   261.98344     -7788.1204      571          
   1193000   299.00138     -7781.5881      571          
   1194000   311.39106     -7777.0529      571          
   1195000   320.99575     -7770.1916      571          
   1196000   310.94701     -7776.3695      571          
   1197000   264.60144     -7785.8542      571          
   1198000   334.35873     -7768.3756      571          
   1199000   265.88811     -7788.2263      571          
   1200000   314.51041     -7773.1991      571          
   1201000   281.50839     -7782.8595      571          
   1202000   352.84345     -7766.037       571          
   1203000   275.54929     -7786.432       571          
   1204000   334.04686     -7770.7459      571          
   1205000   295.16682     -7778.2742      571          
   1206000   297.19901     -7775.9912      571          
   1207000   292.44057     -7779.3964      571          
   1208000   303.88197     -7780.7177      571          
   1209000   291.75294     -7781.4603      571          
   1210000   295.09067     -7776.6418      571          
   1211000   361.22536     -7761.3923      571          
   1212000   278.32544     -7788.1626      571          
   1213000   337.92683     -7774.5481      571          
   1214000   338.06684     -7771.9431      571          
   1215000   286.29847     -7783.9794      571          
   1216000   328.35997     -7775.0908      571          
   1217000   287.19583     -7788.7431      571          
   1218000   313.06338     -7781.6322      571          
   1219000   308.71088     -7780.1451      571          
   1220000   327.17365     -7771.5589      571          
   1221000   295.64062     -7788.156       571          
   1222000   324.98734     -7772.4355      571          
   1223000   335.54962     -7776.3447      571          
   1224000   272.28915     -7791.3418      571          
   1225000   329.17167     -7775.777       571          
   1226000   288.55635     -7786.1515      571          
   1227000   311.14721     -7778.8815      571          
   1228000   309.45867     -7785.3402      571          
   1229000   310.18748     -7783.2558      571          
   1230000   300.78382     -7782.4588      571          
   1231000   328.75664     -7771.3282      571          
   1232000   309.73592     -7778.1213      571          
   1233000   270.10489     -7791.2505      571          
   1234000   302.58827     -7785.4895      571          
   1235000   325.41685     -7773.5576      571          
   1236000   367.05732     -7760.72        571          
   1237000   281.59852     -7788.8402      571          
   1238000   273.57098     -7795.5046      571          
   1239000   323.70674     -7774.0528      571          
   1240000   293.13795     -7784.2499      571          
   1241000   336.92663     -7770.3831      571          
   1242000   293.31735     -7785.2024      571          
   1243000   262.36906     -7795.9358      571          
   1244000   318.36201     -7778.7993      571          
   1245000   290.90093     -7783.8312      571          
   1246000   341.19704     -7773.7021      571          
   1247000   300.00663     -7784.8816      571          
   1248000   308.46838     -7784.4998      571          
   1249000   298.5803      -7783.6508      571          
   1250000   301.1177      -7784.7828      571          
   1251000   332.78178     -7775.3682      571          
   1252000   306.60236     -7784.0342      571          
   1253000   371.38046     -7765.3903      571          
   1254000   285.29096     -7787.739       571          
   1255000   310.14035     -7784.4455      571          
   1256000   312.38387     -7776.4471      571          
   1257000   299.65137     -7779.2166      571          
   1258000   307.89458     -7784.1065      571          
   1259000   292.51367     -7786.7037      571          
   1260000   351.24763     -7765.835       571          
   1261000   320.62032     -7777.8929      571          
   1262000   327.76414     -7775.067       571          
   1263000   321.31195     -7780.1098      571          
   1264000   292.4523      -7782.8365      571          
   1265000   329.58988     -7776.8722      571          
   1266000   284.69609     -7791.2838      571          
   1267000   298.92386     -7785.2349      571          
   1268000   324.61627     -7772.6181      571          
   1269000   273.5872      -7791.3079      571          
   1270000   273.84313     -7790.2042      571          
   1271000   292.85125     -7783.291       571          
   1272000   274.22655     -7790.6835      571          
   1273000   310.19981     -7785.4025      571          
   1274000   312.83333     -7782.0229      571          
   1275000   325.1773      -7775.9251      571          
   1276000   277.54754     -7788.8492      571          
   1277000   264.01803     -7795.3111      571          
   1278000   348.59441     -7768.3403      571          
   1279000   302.37687     -7782.8887      571          
   1280000   308.76235     -7780.7454      571          
   1281000   348.94881     -7769.4411      571          
   1282000   263.60372     -7791.0556      571          
   1283000   362.51256     -7769.9782      571          
   1284000   331.92611     -7791.9687      572          
   1285000   284.26335     -7802.3384      572          
   1286000   339.08518     -7788.6753      572          
   1287000   293.66589     -7801.4975      572          
   1288000   306.44634     -7797.8358      572          
   1289000   301.47934     -7796.1784      572          
   1290000   304.56767     -7800.3489      572          
   1291000   317.30377     -7794.4154      572          
   1292000   295.59328     -7800.9709      572          
   1293000   292.89971     -7799.271       572          
   1294000   306.23704     -7798.5732      572          
   1295000   289.65767     -7805.4221      572          
   1296000   294.30957     -7797.9652      572          
   1297000   283.3202      -7803.1201      572          
   1298000   268.66957     -7809.6662      572          
   1299000   299.46393     -7792.6115      572          
   1300000   267.48159     -7809.9182      572          
   1301000   272.62064     -7808.9048      572          
   1302000   370.38605     -7780.1707      572          
   1303000   279.9305      -7804.0044      572          
   1304000   316.65202     -7794.8853      572          
   1305000   311.05719     -7794.0549      572          
   1306000   281.07256     -7803.3228      572          
   1307000   317.75529     -7795.4013      572          
   1308000   294.0176      -7802.4368      572          
   1309000   327.67377     -7791.5213      572          
   1310000   286.5325      -7804.7488      572          
   1311000   309.19069     -7795.1548      572          
   1312000   299.03971     -7798.6144      572          
   1313000   311.82858     -7793.9612      572          
   1314000   306.44198     -7798.2581      572          
   1315000   284.42477     -7800.9386      572          
   1316000   292.6931      -7801.5908      572          
   1317000   310.56219     -7794.7772      572          
   1318000   289.55454     -7799.4029      572          
   1319000   287.06579     -7803.4825      572          
   1320000   339.24176     -7784.4483      572          
   1321000   312.01024     -7794.3508      572          
   1322000   273.71893     -7804.6787      572          
   1323000   339.93743     -7790.7086      572          
   1324000   290.19422     -7797.2186      572          
   1325000   311.0434      -7796.044       572          
   1326000   260.01709     -7811.3467      572          
   1327000   298.11255     -7795.7581      572          
   1328000   305.6405      -7796.2811      572          
   1329000   295.16436     -7801.7312      572          
   1330000   366.84534     -7784.2083      572          
   1331000   315.3166      -7790.3661      572          
   1332000   289.9813      -7801.3012      572          
   1333000   339.66196     -7787.0924      572          
   1334000   278.91735     -7804.7096      572          
   1335000   318.8503      -7793.9866      572          
   1336000   278.33295     -7808.0218      572          
   1337000   317.16559     -7792.6803      572          
   1338000   313.83736     -7793.8631      572          
   1339000   332.02334     -7789.63        572          
   1340000   303.6123      -7798.0158      572          
   1341000   318.27944     -7795.9086      572          
   1342000   310.58345     -7794.3082      572          
   1343000   289.26094     -7800.3241      572          
   1344000   301.57074     -7802.5083      572          
   1345000   292.2787      -7802.8624      572          
   1346000   350.4309      -7784.0685      572          
   1347000   322.03896     -7792.3373      572          
   1348000   304.47592     -7799.8498      572          
   1349000   282.67374     -7800.4256      572          
   1350000   335.53071     -7791.3911      572          
   1351000   347.8337      -7790.535       572          
   1352000   320.14687     -7796.2213      572          
   1353000   369.01331     -7782.7573      572          
   1354000   288.71714     -7803.8679      572          
   1355000   323.36468     -7787.6791      572          
   1356000   277.10482     -7807.078       572          
   1357000   314.0728      -7795.0472      572          
   1358000   314.70764     -7791.0861      572          
   1359000   286.47211     -7795.9702      572          
   1360000   322.23681     -7796.4559      572          
   1361000   278.93536     -7802.7684      572          
   1362000   284.48791     -7801.912       572          
   1363000   272.3107      -7802.9878      572          
   1364000   311.42542     -7796.6582      572          
   1365000   307.63353     -7795.649       572          
   1366000   328.30749     -7787.0799      572          
   1367000   333.01694     -7786.0016      572          
   1368000   303.22548     -7796.8427      572          
   1369000   320.35086     -7795.4173      572          
   1370000   303.07928     -7795.0549      572          
   1371000   317.63175     -7790.0376      572          
   1372000   286.08448     -7805.48        572          
   1373000   272.96186     -7807.313       572          
   1374000   337.05312     -7783.0168      572          
   1375000   289.98588     -7802.3055      572          
   1376000   295.47861     -7804.2458      572          
   1377000   303.4405      -7797.5633      572          
   1378000   340.94756     -7782.6215      572          
   1379000   323.44088     -7794.5577      572          
   1380000   305.10567     -7797.3085      572          
   1381000   369.26423     -7778.8172      572          
   1382000   283.48955     -7804.6839      572          
   1383000   334.80734     -7788.5901      572          
   1384000   296.60135     -7800.5512      572          
   1385000   298.62542     -7802.3212      572          
   1386000   377.36628     -7776.0761      572          
   1387000   293.63208     -7802.718       572          
   1388000   330.41207     -7788.42        572          
   1389000   362.33116     -7782.0863      572          
   1390000   284.34281     -7807.024       572          
   1391000   327.06511     -7789.5162      572          
   1392000   314.88287     -7794.8298      572          
   1393000   326.25271     -7790.5921      572          
   1394000   298.92602     -7797.4507      572          
   1395000   287.64643     -7803.5013      572          
   1396000   308.28426     -7797.3102      572          
   1397000   302.69853     -7796.8456      572          
   1398000   280.04686     -7806.9886      572          
   1399000   288.34885     -7802.2899      572          
   1400000   330.77096     -7789.2026      572          
   1401000   272.86445     -7803.9033      572          
   1402000   292.55748     -7801.5102      572          
   1403000   297.45596     -7800.0427      572          
   1404000   277.69823     -7804.0188      572          
   1405000   341.27358     -7786.7495      572          
   1406000   245.39845     -7816.5424      572          
   1407000   331.50943     -7788.1386      572          
   1408000   291.09334     -7802.9426      572          
   1409000   338.72827     -7783.0444      572          
   1410000   293.43791     -7803.0902      572          
   1411000   300.37895     -7803.6896      572          
   1412000   335.67839     -7783.4478      572          
   1413000   297.34534     -7797.2951      572          
   1414000   319.66557     -7800.3399      572          
   1415000   280.82062     -7805.9542      572          
   1416000   305.39653     -7791.4977      572          
   1417000   279.28405     -7805.7501      572          
   1418000   329.29998     -7790.8339      572          
   1419000   287.26308     -7801.5162      572          
   1420000   311.67065     -7795.387       572          
   1421000   317.02926     -7789.835       572          
   1422000   291.96176     -7802.1793      572          
   1423000   318.65361     -7793.8152      572          
   1424000   322.62983     -7795.2022      572          
   1425000   318.20216     -7793.481       572          
   1426000   312.62384     -7799.3802      572          
   1427000   312.01359     -7795.9501      572          
   1428000   304.27219     -7795.1641      572          
   1429000   317.97446     -7794.1783      572          
   1430000   293.67221     -7797.3527      572          
   1431000   321.40233     -7797.5876      572          
   1432000   276.09971     -7807.8419      572          
   1433000   290.24253     -7800.5568      572          
   1434000   285.14943     -7800.5001      572          
   1435000   298.41307     -7800.2498      572          
   1436000   350.00551     -7783.5821      572          
   1437000   301.62598     -7795.6151      572          
   1438000   352.66096     -7783.534       572          
   1439000   311.22751     -7796.0782      572          
   1440000   314.84657     -7794.6895      572          
   1441000   314.37765     -7797.5121      572          
   1442000   322.45392     -7791.111       572          
   1443000   324.27655     -7789.0399      572          
   1444000   310.42791     -7793.9216      572          
   1445000   297.07352     -7796.2192      572          
   1446000   303.59086     -7799.3808      572          
   1447000   266.48631     -7809.8651      572          
   1448000   322.98173     -7788.4313      572          
   1449000   294.64084     -7800.853       572          
   1450000   253.43077     -7812.5536      572          
   1451000   322.62913     -7792.1845      572          
   1452000   271.75042     -7809.138       572          
   1453000   358.89829     -7783.6289      572          
   1454000   328.29969     -7790.408       572          
   1455000   308.69284     -7795.4752      572          
   1456000   283.93474     -7803.5358      572          
   1457000   264.3462      -7811.1203      572          
   1458000   304.37033     -7792.1673      572          
   1459000   326.13801     -7793.7525      572          
   1460000   319.6478      -7793.3397      572          
   1461000   312.01067     -7795.7987      572          
   1462000   275.35417     -7802.0967      572          
   1463000   294.38343     -7801.2933      572          
   1464000   335.14334     -7785.4072      572          
   1465000   330.04246     -7792.7305      572          
   1466000   304.10131     -7797.812       572          
   1467000   289.76044     -7801.363       572          
   1468000   312.80971     -7796.3638      572          
   1469000   270.90723     -7809.273       572          
   1470000   270.796       -7805.0463      572          
   1471000   290.9852      -7803.6982      572          
   1472000   312.09878     -7795.443       572          
   1473000   310.60343     -7789.0968      572          
   1474000   349.59729     -7780.0212      572          
   1475000   288.35909     -7805.5475      572          
   1476000   339.59864     -7785.1683      572          
   1477000   316.03443     -7789.631       572          
   1478000   280.10951     -7805.7718      572          
   1479000   352.98068     -7785.5272      572          
   1480000   295.933       -7799.527       572          
   1481000   314.21072     -7791.5152      572          
   1482000   289.4713      -7803.9375      572          
   1483000   309.40434     -7795.8405      572          
   1484000   314.36814     -7792.2598      572          
   1485000   285.17823     -7801.9235      572          
   1486000   376.32238     -7768.7686      572          
   1487000   261.50514     -7809.7343      572          
   1488000   289.76336     -7804.3698      572          
   1489000   327.11161     -7789.5568      572          
   1490000   284.03795     -7802.2248      572          
   1491000   302.43065     -7797.2216      572          
   1492000   305.89987     -7796.1195      572          
   1493000   317.1458      -7792.7057      572          
   1494000   347.67397     -7789.0418      572          
   1495000   332.88642     -7791.1399      572          
   1496000   347.95829     -7787.0837      572          
   1497000   306.41314     -7799.976       572          
   1498000   329.88916     -7792.7181      572          
   1499000   356.58755     -7783.4254      572          
   1500000   285.59354     -7801.5503      572          
   1501000   302.67352     -7799.3183      572          
   1502000   329.77863     -7793.0229      572          
   1503000   269.31199     -7810.2705      572          
   1504000   322.06303     -7798.7837      572          
   1505000   281.78687     -7801.9532      572          
   1506000   307.73451     -7796.0797      572          
   1507000   278.30432     -7808.992       572          
   1508000   298.89378     -7800.4074      572          
   1509000   280.63479     -7808.3505      572          
   1510000   294.21995     -7799.2072      572          
   1511000   312.18199     -7796.2065      572          
   1512000   241.21224     -7816.2833      572          
   1513000   295.18872     -7803.1882      572          
   1514000   315.89573     -7793.8791      572          
   1515000   292.9226      -7800.9469      572          
   1516000   298.47927     -7800.9167      572          
   1517000   297.51338     -7803.1092      572          
   1518000   312.12398     -7798.6409      572          
   1519000   256.35827     -7810.144       572          
   1520000   325.7108      -7797.8154      572          
   1521000   266.21341     -7807.4933      572          
   1522000   360.60832     -7786.0267      572          
   1523000   293.04232     -7804.472       572          
   1524000   286.35634     -7804.1543      572          
   1525000   260.4981      -7814.2209      572          
   1526000   295.40655     -7800.8019      572          
   1527000   284.95102     -7808.0005      572          
   1528000   311.17352     -7793.5102      572          
   1529000   293.76902     -7801.5737      572          
   1530000   319.23357     -7799.0324      572          
   1531000   276.79786     -7807.6807      572          
   1532000   308.7458      -7803.5016      572          
   1533000   290.5396      -7801.9325      572          
   1534000   310.63526     -7796.4312      572          
   1535000   264.66567     -7811.2399      572          
   1536000   294.6324      -7798.0465      572          
   1537000   256.62499     -7813.3589      572          
   1538000   313.20881     -7801.3296      572          
   1539000   325.53684     -7794.5946      572          
   1540000   296.17685     -7801.7895      572          
   1541000   279.18052     -7808.2481      572          
   1542000   293.85599     -7803.9693      572          
   1543000   235.88002     -7821.1404      572          
   1544000   318.08144     -7793.8756      572          
   1545000   272.46452     -7805.4431      572          
   1546000   307.02786     -7801.6288      572          
   1547000   300.77395     -7806.248       572          
   1548000   290.28255     -7807.2425      572          
   1549000   322.6891      -7801.4378      572          
   1550000   271.94755     -7814.6209      572          
   1551000   322.11763     -7798.8846      572          
   1552000   246.40098     -7823.5341      572          
   1553000   314.90453     -7804.4618      572          
   1554000   321.09548     -7794.7012      572          
   1555000   329.86525     -7799.4937      572          
   1556000   330.8055      -7800.0357      572          
   1557000   295.13426     -7803.6594      572          
   1558000   327.85436     -7796.1574      572          
   1559000   319.29801     -7801.3012      572          
   1560000   315.44547     -7799.2806      572          
   1561000   307.35587     -7803.3894      572          
   1562000   314.6594      -7803.5812      572          
   1563000   287.08614     -7809.4997      572          
   1564000   319.59384     -7794.7704      572          
   1565000   329.95571     -7796.6489      572          
   1566000   294.01389     -7805.0713      572          
   1567000   291.7202      -7807.0828      572          
   1568000   282.68837     -7808.81        572          
   1569000   293.86475     -7807.8408      572          
   1570000   267.19498     -7812.4042      572          
   1571000   348.25252     -7792.0928      572          
   1572000   304.03766     -7803.9772      572          
   1573000   297.18546     -7807.3167      572          
   1574000   271.80862     -7816.0178      572          
   1575000   305.6679      -7806.3705      572          
   1576000   308.78904     -7802.4775      572          
   1577000   261.49546     -7818.4725      572          
   1578000   351.31039     -7795.0552      572          
   1579000   307.35878     -7802.0891      572          
   1580000   316.88981     -7804.0012      572          
   1581000   322.89098     -7799.1396      572          
   1582000   271.66708     -7815.9953      572          
   1583000   338.01231     -7801.0177      572          
   1584000   274.08899     -7815.2542      572          
   1585000   338.13919     -7794.7415      572          
   1586000   270.5416      -7813.481       572          
   1587000   260.3255      -7820.2561      572          
   1588000   354.7113      -7791.9795      572          
   1589000   335.69642     -7792.4653      572          
   1590000   298.39699     -7811.4041      572          
   1591000   362.68389     -7787.5802      572          
   1592000   306.91642     -7798.7693      572          
   1593000   282.24219     -7811.5887      572          
   1594000   336.92608     -7798.1388      572          
   1595000   269.40832     -7817.3077      572          
   1596000   312.85813     -7802.703       572          
   1597000   314.18053     -7804.36        572          
   1598000   331.45757     -7797.7097      572          
   1599000   279.41603     -7811.5924      572          
   1600000   272.97236     -7818.2667      572          
   1601000   311.52432     -7804.3965      572          
   1602000   270.579       -7810.7677      572          
   1603000   337.74356     -7798.8524      572          
   1604000   313.85361     -7805.4676      572          
   1605000   261.81949     -7820.433       572          
   1606000   315.58796     -7798.8143      572          
   1607000   268.08097     -7815.1258      572          
   1608000   302.86296     -7807.3217      572          
   1609000   328.73129     -7798.7956      572          
   1610000   281.75458     -7816.2827      572          
   1611000   316.67928     -7799.5683      572          
   1612000   324.21273     -7803.8618      572          
   1613000   278.75516     -7815.8558      572          
   1614000   307.3434      -7806.918       572          
   1615000   315.18773     -7802.4847      572          
   1616000   287.79386     -7809.2678      572          
   1617000   305.48167     -7804.2666      572          
   1618000   308.41957     -7805.2446      572          
   1619000   300.65287     -7812.6773      572          
   1620000   321.77068     -7806.5548      572          
   1621000   338.68833     -7802.4867      572          
   1622000   323.81727     -7803.774       572          
   1623000   307.96654     -7810.9703      572          
   1624000   271.47987     -7821.7859      572          
   1625000   313.55882     -7807.0362      572          
   1626000   341.3887      -7796.5352      572          
   1627000   301.96189     -7814.4139      572          
   1628000   310.57544     -7808.0214      572          
   1629000   276.37132     -7817.9147      572          
   1630000   314.60479     -7805.971       572          
   1631000   405.56429     -7785.5986      572          
   1632000   288.36785     -7818.0383      572          
   1633000   335.23795     -7806.8994      572          
   1634000   298.7329      -7809.9597      572          
   1635000   293.32473     -7816.7656      572          
   1636000   339.90155     -7802.5032      572          
   1637000   298.0215      -7812.3777      572          
   1638000   328.98156     -7805.9864      572          
   1639000   285.60857     -7814.4862      572          
   1640000   293.75463     -7814.7314      572          
   1641000   306.69896     -7808.4156      572          
   1642000   285.19008     -7814.4737      572          
   1643000   280.68865     -7818.9906      572          
   1644000   315.50148     -7807.01        572          
   1645000   335.11657     -7797.4608      572          
   1646000   297.33882     -7812.5873      572          
   1647000   280.64925     -7816.6607      572          
   1648000   287.39426     -7814.2822      572          
   1649000   325.07908     -7806.3259      572          
   1650000   300.91144     -7810.3543      572          
   1651000   284.68844     -7818.3143      572          
   1652000   291.44105     -7812.4336      572          
   1653000   283.29114     -7815.748       572          
   1654000   337.06259     -7804.0206      572          
   1655000   261.1274      -7827.5434      572          
   1656000   311.32485     -7804.2332      572          
   1657000   302.86663     -7813.5841      572          
   1658000   314.23346     -7812.3578      572          
   1659000   259.57345     -7818.5872      572          
   1660000   389.7916      -7787.6457      572          
   1661000   298.47928     -7815.163       572          
   1662000   312.51053     -7807.7222      572          
   1663000   282.69908     -7815.5732      572          
   1664000   299.77964     -7812.0903      572          
   1665000   276.65074     -7815.0002      572          
   1666000   278.65097     -7817.1458      572          
   1667000   303.69243     -7809.4798      572          
   1668000   284.25115     -7814.7721      572          
   1669000   326.07726     -7805.0351      572          
   1670000   310.02058     -7812.2987      572          
   1671000   337.83549     -7804.9672      572          
   1672000   306.13739     -7808.7896      572          
   1673000   348.496       -7797.976       572          
   1674000   284.38887     -7817.1023      572          
   1675000   304.34444     -7812.7143      572          
   1676000   315.0207      -7805.737       572          
   1677000   317.34117     -7810.7033      572          
   1678000   301.23748     -7808.9929      572          
   1679000   319.21909     -7808.0737      572          
   1680000   306.00631     -7809.6131      572          
   1681000   316.33877     -7803.4232      572          
   1682000   309.76598     -7812.4747      572          
   1683000   301.41992     -7811.8184      572          
   1684000   320.97805     -7805.7692      572          
   1685000   286.09768     -7815.6462      572          
   1686000   342.76863     -7803.0641      572          
   1687000   304.34939     -7810.2619      572          
   1688000   303.5694      -7808.4174      572          
   1689000   254.80217     -7825.0196      572          
   1690000   302.95009     -7813.3675      572          
   1691000   314.88882     -7807.6491      572          
   1692000   332.34417     -7798.3149      572          
   1693000   290.60509     -7813.8688      572          
   1694000   281.30915     -7818.0779      572          
   1695000   326.99673     -7805.2226      572          
   1696000   304.2765      -7807.3392      572          
   1697000   329.23972     -7806.2399      572          
   1698000   288.61083     -7817.1638      572          
   1699000   302.70781     -7811.7163      572          
   1700000   313.57183     -7804.7279      572          
   1701000   291.37836     -7813.8884      572          
   1702000   281.23612     -7821.1502      572          
   1703000   346.51155     -7800.3121      572          
   1704000   289.30403     -7815.115       572          
   1705000   266.82        -7822.0105      572          
   1706000   318.8803      -7805.9112      572          
   1707000   259.03426     -7821.1146      572          
   1708000   277.33213     -7821.4998      572          
   1709000   294.32214     -7814.7998      572          
   1710000   277.3647      -7819.39        572          
   1711000   308.8359      -7805.632       572          
   1712000   326.2378      -7803.8057      572          
   1713000   302.00054     -7812.7795      572          
   1714000   299.44878     -7813.8636      572          
   1715000   311.78147     -7805.9033      572          
   1716000   282.47013     -7814.7945      572          
   1717000   319.75325     -7809.7379      572          
   1718000   337.3536      -7802.6544      572          
   1719000   312.08107     -7805.7382      572          
   1720000   368.73367     -7799.9451      572          
   1721000   341.75741     -7804.4096      572          
   1722000   296.27279     -7811.9731      572          
   1723000   285.4036      -7816.9149      572          
   1724000   312.95341     -7811.3006      572          
   1725000   307.3651      -7813.0159      572          
   1726000   283.14994     -7816.5823      572          
   1727000   274.80036     -7812.9821      572          
   1728000   271.16624     -7817.9249      572          
   1729000   290.41774     -7817.9503      572          
   1730000   307.22415     -7811.2097      572          
   1731000   339.36182     -7801.3456      572          
   1732000   327.32879     -7804.6423      572          
   1733000   341.83984     -7803.3164      572          
   1734000   285.09492     -7817.4712      572          
   1735000   309.75986     -7812.1703      572          
   1736000   350.24524     -7797.8205      572          
   1737000   306.49494     -7811.7564      572          
   1738000   312.12001     -7808.6647      572          
   1739000   302.94072     -7809.3496      572          
   1740000   322.85331     -7802.6635      572          
   1741000   334.6891      -7801.3558      572          
   1742000   335.36739     -7804.2363      572          
   1743000   298.61702     -7810.1422      572          
   1744000   276.78266     -7818.5301      572          
   1745000   318.98813     -7808.6766      572          
   1746000   326.23155     -7807.8166      572          
   1747000   331.12721     -7799.2913      572          
   1748000   326.84164     -7803.2998      572          
   1749000   310.53298     -7809.8784      572          
   1750000   299.89588     -7813.2696      572          
   1751000   316.48074     -7801.6675      572          
   1752000   264.91016     -7823.0739      572          
   1753000   312.4595      -7812.1934      572          
   1754000   288.0545      -7817.7483      572          
   1755000   303.56076     -7809.2007      572          
   1756000   353.90404     -7795.6747      572          
   1757000   258.99122     -7823.6647      572          
   1758000   311.18336     -7811.8064      572          
   1759000   308.4503      -7811.2641      572          
   1760000   291.81357     -7812.573       572          
   1761000   323.8918      -7803.3745      572          
   1762000   318.97962     -7808.9232      572          
   1763000   276.50191     -7819.1609      572          
   1764000   336.33045     -7794.4054      572          
   1765000   302.77797     -7816.175       572          
   1766000   347.96738     -7801.7422      572          
   1767000   276.809       -7819.8693      572          
   1768000   297.25669     -7813.3522      572          
   1769000   288.77377     -7816.247       572          
   1770000   282.52213     -7815.9373      572          
   1771000   298.2663      -7807.5255      572          
   1772000   263.42122     -7823.3144      572          
   1773000   338.34322     -7802.1969      572          
   1774000   274.56662     -7819.9158      572          
   1775000   274.3825      -7821.0489      572          
   1776000   286.18585     -7825.3829      573          
   1777000   324.02902     -7815.1556      573          
   1778000   286.1365      -7827.0176      573          
   1779000   316.42483     -7815.5757      573          
   1780000   287.06703     -7831.9039      573          
   1781000   356.62552     -7809.3981      573          
   1782000   299.44132     -7821.7148      573          
   1783000   313.58248     -7821.3011      573          
   1784000   295.92838     -7823.5172      573          
   1785000   276.12262     -7829.9958      573          
   1786000   257.54235     -7835.1593      573          
   1787000   336.71684     -7811.0934      573          
   1788000   286.18117     -7826.4252      573          
   1789000   340.63648     -7808.7893      573          
   1790000   275.71155     -7827.7238      573          
   1791000   305.89472     -7818.7724      573          
   1792000   243.74471     -7840.3384      573          
   1793000   318.86765     -7820.4659      573          
   1794000   322.7781      -7813.351       573          
   1795000   297.02476     -7827.5952      573          
   1796000   270.92018     -7833.3108      573          
   1797000   315.91402     -7814.8787      573          
   1798000   285.52446     -7823.237       573          
   1799000   307.191       -7823.8562      573          
   1800000   302.8293      -7828.0994      573          
   1801000   279.11786     -7830.6466      573          
   1802000   315.94984     -7816.4811      573          
   1803000   300.42858     -7820.6047      573          
   1804000   313.57307     -7821.7186      573          
   1805000   284.20703     -7833.1151      573          
   1806000   334.20663     -7815.9411      573          
   1807000   316.8864      -7819.0424      573          
   1808000   292.98514     -7819.5527      573          
   1809000   328.61685     -7815.4037      573          
   1810000   324.94478     -7822.2331      573          
   1811000   307.59211     -7819.7112      573          
   1812000   306.84629     -7820.6133      573          
   1813000   298.95514     -7823.6344      573          
   1814000   263.02695     -7835.9897      573          
   1815000   290.27376     -7825.1944      573          
   1816000   305.51852     -7821.2588      573          
   1817000   357.9258      -7811.2389      573          
   1818000   344.98768     -7814.3764      573          
   1819000   294.78152     -7824.6897      573          
   1820000   356.4762      -7803.9513      573          
   1821000   296.73518     -7826.2401      573          
   1822000   294.38782     -7827.5234      573          
   1823000   337.03799     -7811.9072      573          
   1824000   297.31413     -7822.5227      573          
   1825000   318.07445     -7819.1233      573          
   1826000   268.72996     -7833.9494      573          
   1827000   314.68331     -7818.4037      573          
   1828000   287.04026     -7823.6735      573          
   1829000   333.60641     -7812.6141      573          
   1830000   320.88162     -7818.8547      573          
   1831000   345.59489     -7811.6674      573          
   1832000   283.37862     -7834.6009      573          
   1833000   330.60067     -7817.9483      573          
   1834000   302.15779     -7824.1765      573          
   1835000   339.76211     -7811.9192      573          
   1836000   280.35318     -7829.8579      573          
   1837000   318.3825      -7817.7927      573          
   1838000   357.17068     -7809.6791      573          
   1839000   308.69742     -7821.2075      573          
   1840000   299.24017     -7825.1951      573          
   1841000   282.04563     -7830.0751      573          
   1842000   276.76193     -7828.5782      573          
   1843000   308.5229      -7818.3772      573          
   1844000   281.44061     -7828.2437      573          
   1845000   307.39648     -7821.1107      573          
   1846000   295.52104     -7825.9984      573          
   1847000   312.885       -7819.9121      573          
   1848000   308.04082     -7824.8187      573          
   1849000   306.43118     -7822.3092      573          
   1850000   303.22936     -7825.0553      573          
   1851000   274.04463     -7833.7279      573          
   1852000   335.34198     -7811.2059      573          
   1853000   304.44747     -7821.7495      573          
   1854000   320.91894     -7817.5711      573          
   1855000   298.32348     -7820.9882      573          
   1856000   283.61305     -7829.1155      573          
   1857000   382.63556     -7794.2957      573          
   1858000   280.39372     -7830.0357      573          
   1859000   313.89504     -7820.7793      573          
   1860000   313.77468     -7823.3721      573          
   1861000   300.59019     -7819.5993      573          
   1862000   321.50674     -7811.0963      573          
   1863000   299.69415     -7823.3055      573          
   1864000   327.96868     -7815.8249      573          
   1865000   267.3123      -7831.7836      573          
   1866000   313.73843     -7813.4922      573          
   1867000   313.59097     -7823.0701      573          
   1868000   277.27665     -7831.0316      573          
   1869000   330.22295     -7809.6427      573          
   1870000   276.10174     -7833.5528      573          
   1871000   346.11709     -7810.3149      573          
   1872000   290.87627     -7830.7308      573          
   1873000   328.25273     -7818.7219      573          
   1874000   278.88745     -7829.5381      573          
   1875000   301.56057     -7823.9451      573          
   1876000   318.97473     -7816.5429      573          
   1877000   336.09836     -7812.6941      573          
   1878000   292.43596     -7827.4477      573          
   1879000   287.41566     -7828.9632      573          
   1880000   294.11083     -7828.0386      573          
   1881000   323.98745     -7818.3347      573          
   1882000   277.74856     -7828.9645      573          
   1883000   289.54379     -7830.1756      573          
   1884000   394.02008     -7795.9139      573          
   1885000   287.59953     -7824.5423      573          
   1886000   317.89358     -7815.6535      573          
   1887000   308.6366      -7819.6752      573          
   1888000   277.85325     -7832.2235      573          
   1889000   327.96588     -7812.9824      573          
   1890000   303.10718     -7819.2067      573          
   1891000   319.15455     -7823.1164      573          
   1892000   266.74276     -7836.0503      573          
   1893000   321.54888     -7815.5694      573          
   1894000   362.60283     -7804.2516      573          
   1895000   300.89978     -7825.601       573          
   1896000   293.61063     -7831.1198      573          
   1897000   370.96763     -7805.8461      573          
   1898000   318.90791     -7815.978       573          
   1899000   333.70502     -7815.9136      573          
   1900000   312.56401     -7825.5946      573          
   1901000   290.88078     -7829.7073      573          
   1902000   390.54234     -7798.6727      573          
   1903000   320.60773     -7815.8832      573          
   1904000   270.10236     -7835.2879      573          
   1905000   273.24733     -7830.5551      573          
   1906000   297.1789      -7820.6743      573          
   1907000   299.04239     -7823.3968      573          
   1908000   271.87146     -7832.029       573          
   1909000   293.07333     -7826.7243      573          
   1910000   279.29234     -7834.6608      573          
   1911000   326.11922     -7809.0921      573          
   1912000   292.28262     -7828.6806      573          
   1913000   314.47495     -7818.5391      573          
   1914000   326.99752     -7823.4567      574          
   1915000   314.01541     -7826.5509      574          
   1916000   297.37869     -7834.1649      574          
   1917000   322.29787     -7828.7094      574          
   1918000   294.46865     -7835.3456      574          
   1919000   326.52191     -7833.629       574          
   1920000   273.80819     -7843.0044      574          
   1921000   283.26459     -7841.5375      574          
   1922000   336.0833      -7825.8007      574          
   1923000   299.21709     -7833.1588      574          
   1924000   325.75591     -7830.7917      574          
   1925000   280.97208     -7838.126       574          
   1926000   342.32529     -7823.7647      574          
   1927000   342.33836     -7824.1462      574          
   1928000   295.55691     -7833.9946      574          
   1929000   314.48155     -7828.7424      574          
   1930000   310.33685     -7834.4831      574          
   1931000   307.70939     -7841.6274      574          
   1932000   281.63929     -7845.7401      574          
   1933000   305.81778     -7838.3771      574          
   1934000   297.09872     -7836.5013      574          
   1935000   334.59104     -7829.1204      574          
   1936000   283.2405      -7842.8371      574          
   1937000   309.90345     -7834.7649      574          
   1938000   354.78225     -7820.3714      574          
   1939000   299.75288     -7843.372       574          
   1940000   373.60695     -7819.5754      574          
   1941000   281.70218     -7841.6472      574          
   1942000   309.87012     -7833.2475      574          
   1943000   276.09609     -7846.4656      574          
   1944000   295.78141     -7839.9815      574          
   1945000   328.84703     -7833.0019      574          
   1946000   285.9345      -7844.7482      574          
   1947000   298.80569     -7838.7869      574          
   1948000   286.4652      -7845.2326      574          
   1949000   272.67554     -7843.9048      574          
   1950000   362.78964     -7822.6403      574          
   1951000   284.85325     -7845.5052      574          
   1952000   298.70404     -7842.5883      574          
   1953000   297.11932     -7845.2507      574          
   1954000   319.8196      -7831.7325      574          
   1955000   282.29638     -7848.3858      574          
   1956000   294.9635      -7839.7762      574          
   1957000   297.84709     -7840.4232      574          
   1958000   287.50305     -7844.0099      574          
   1959000   330.46664     -7837.9886      575          
   1960000   298.84527     -7853.656       575          
   1961000   300.25836     -7850.2072      575          
   1962000   279.61061     -7852.3866      575          
   1963000   283.8665      -7853.8855      575          
   1964000   293.44062     -7856.9815      575          
   1965000   325.73738     -7846.3466      575          
   1966000   309.84811     -7846.934       575          
   1967000   292.55327     -7856.0085      575          
   1968000   381.23366     -7832.5666      575          
   1969000   283.14337     -7857.2525      575          
   1970000   352.11027     -7835.0403      575          
   1971000   285.41444     -7858.4247      575          
   1972000   314.06562     -7845.6131      575          
   1973000   299.59448     -7853.3225      575          
   1974000   325.35745     -7845.6958      575          
   1975000   302.98935     -7849.627       575          
   1976000   288.63905     -7852.7631      575          
   1977000   309.46659     -7849.6467      575          
   1978000   335.97062     -7840.2215      575          
   1979000   251.41854     -7868.9583      575          
   1980000   341.23981     -7840.1697      575          
   1981000   289.51104     -7854.1428      575          
   1982000   284.14858     -7855.2943      575          
   1983000   286.44848     -7858.4935      575          
   1984000   328.7377      -7843.3964      575          
   1985000   320.51532     -7844.9215      575          
   1986000   312.69161     -7843.8966      575          
   1987000   314.91613     -7843.5695      575          
   1988000   269.66646     -7860.051       575          
   1989000   296.14814     -7849.1164      575          
   1990000   298.64566     -7850.4189      575          
   1991000   280.12094     -7857.0613      575          
   1992000   326.0105      -7843.1331      575          
   1993000   305.33245     -7848.9109      575          
   1994000   280.51279     -7856.6366      575          
   1995000   287.26449     -7853.9907      575          
   1996000   275.40426     -7859.6271      575          
   1997000   318.73739     -7844.2476      575          
   1998000   290.45055     -7848.6121      575          
   1999000   305.97834     -7852.5113      575          
   2000000   356.41621     -7839.8503      575          
   2001000   286.03075     -7854.1978      575          
   2002000   275.83616     -7857.0681      575          
   2003000   326.40678     -7847.5608      575          
   2004000   270.54112     -7859.5869      575          
   2005000   308.32618     -7847.893       575          
   2006000   314.63373     -7840.9661      575          
   2007000   306.92112     -7850.6977      575          
   2008000   306.57781     -7853.6836      575          
   2009000   318.57564     -7844.3342      575          
   2010000   300.70559     -7845.5486      575          
   2011000   314.32249     -7847.2936      575          
   2012000   323.9088      -7847.0232      575          
   2013000   295.16575     -7856.3018      575          
   2014000   289.70285     -7852.0061      575          
   2015000   317.21085     -7843.9931      575          
   2016000   342.31708     -7838.4524      575          
   2017000   281.17613     -7859.2661      575          
   2018000   333.57517     -7844.138       575          
   2019000   258.53176     -7863.5754      575          
   2020000   360.55319     -7831.086       575          
   2021000   266.70882     -7862.8639      575          
   2022000   311.8768      -7846.1733      575          
   2023000   314.80367     -7844.7616      575          
   2024000   277.53951     -7855.6628      575          
   2025000   285.36313     -7858.3297      575          
   2026000   310.42474     -7851.4835      575          
   2027000   286.1688      -7855.1403      575          
   2028000   309.62363     -7851.0725      575          
   2029000   291.88692     -7857.2541      575          
   2030000   272.0884      -7857.5586      575          
   2031000   287.74613     -7849.8118      575          
   2032000   321.15824     -7847.9769      575          
   2033000   281.52145     -7860.7521      575          
   2034000   293.94661     -7853.62        575          
   2035000   267.70007     -7861.0508      575          
   2036000   298.79219     -7844.8509      575          
   2037000   325.83514     -7844.1432      575          
   2038000   273.79475     -7861.1812      575          
   2039000   297.75883     -7853.9381      575          
   2040000   328.6575      -7842.6959      575          
   2041000   304.3843      -7850.8176      575          
   2042000   319.68301     -7844.3273      575          
   2043000   312.5758      -7847.5952      575          
   2044000   294.13325     -7853.3629      575          
   2045000   272.26285     -7857.7427      575          
   2046000   313.72732     -7845.4907      575          
   2047000   266.43701     -7860.3391      575          
   2048000   330.22377     -7846.3763      575          
   2049000   275.37622     -7859.3949      575          
   2050000   312.65593     -7847.9674      575          
   2051000   344.6068      -7839.1069      575          
   2052000   293.33426     -7854.7233      575          
   2053000   346.55019     -7836.5731      575          
   2054000   285.22467     -7857.3782      575          
   2055000   310.47668     -7847.779       575          
   2056000   290.6689      -7851.5832      575          
   2057000   292.72428     -7853.6673      575          
   2058000   281.39472     -7856.5797      575          
   2059000   293.84231     -7850.3044      575          
   2060000   361.56537     -7835.9744      575          
   2061000   317.28229     -7844.2893      575          
   2062000   309.88672     -7849.3282      575          
   2063000   317.16208     -7849.2575      575          
   2064000   319.65571     -7846.588       575          
   2065000   330.77618     -7839.7106      575          
   2066000   273.45623     -7858.954       575          
   2067000   337.30838     -7840.5292      575          
   2068000   258.70234     -7860.7141      575          
   2069000   315.1825      -7847.2376      575          
   2070000   293.73569     -7855.1444      575          
   2071000   332.15434     -7842.3711      575          
   2072000   326.52219     -7842.8448      575          
   2073000   325.05653     -7843.87        575          
   2074000   311.10019     -7851.9055      575          
   2075000   266.60131     -7861.0165      575          
   2076000   354.13605     -7831.6466      575          
   2077000   312.81218     -7849.8135      575          
   2078000   335.26972     -7842.1359      575          
   2079000   301.10955     -7854.0929      575          
   2080000   304.51709     -7846.7621      575          
   2081000   303.04079     -7847.466       575          
   2082000   309.00383     -7851.321       575          
   2083000   328.49012     -7839.1454      575          
   2084000   295.83286     -7852.5935      575          
   2085000   309.84624     -7842.6427      575          
   2086000   310.81394     -7849.6735      575          
   2087000   330.22323     -7844.6452      575          
   2088000   291.75657     -7855.2215      575          
   2089000   307.20625     -7848.6889      575          
   2090000   308.307       -7847.1508      575          
   2091000   324.91368     -7844.6841      575          
   2092000   306.5281      -7846.4409      575          
   2093000   341.76126     -7839.8682      575          
   2094000   293.72432     -7853.4212      575          
   2095000   316.15508     -7845.1602      575          
   2096000   288.87117     -7855.6111      575          
   2097000   344.92357     -7840.1575      575          
   2098000   295.99635     -7849.2015      575          
   2099000   270.07626     -7860.1448      575          
   2100000   297.09747     -7853.3909      575          
   2101000   256.61678     -7868.8198      575          
   2102000   317.70446     -7843.0288      575          
   2103000   285.21097     -7851.441       575          
   2104000   288.80235     -7854.0808      575          
   2105000   316.49727     -7848.979       575          
   2106000   249.07555     -7865.7745      575          
   2107000   299.48417     -7847.2872      575          
   2108000   288.02281     -7854.5987      575          
   2109000   337.17069     -7838.5643      575          
   2110000   329.07593     -7837.6193      575          
   2111000   288.54359     -7855.2479      575          
   2112000   300.38265     -7848.3256      575          
   2113000   299.83945     -7852.4832      575          
   2114000   278.42262     -7855.7576      575          
   2115000   317.62866     -7843.2223      575          
   2116000   325.06904     -7842.8301      575          
   2117000   303.3489      -7852.6452      575          
   2118000   287.10327     -7855.2702      575          
   2119000   342.87047     -7844.0474      575          
   2120000   326.92908     -7845.4279      575          
   2121000   300.97075     -7845.3072      575          
   2122000   292.18449     -7853.027       575          
   2123000   241.94599     -7867.438       575          
   2124000   318.55085     -7851.4726      575          
   2125000   289.71865     -7852.5816      575          
   2126000   302.11764     -7853.4845      575          
   2127000   315.38878     -7849.7859      575          
   2128000   293.79164     -7856.741       575          
   2129000   320.44348     -7842.6533      575          
   2130000   313.25446     -7849.6831      575          
   2131000   319.63668     -7852.7893      575          
   2132000   363.10674     -7839.1526      575          
   2133000   343.30839     -7840.9854      575          
   2134000   321.51496     -7846.3947      575          
   2135000   277.75105     -7859.9813      575          
   2136000   290.48629     -7852.7202      575          
   2137000   285.77932     -7852.6757      575          
   2138000   349.01417     -7842.4739      575          
   2139000   311.76873     -7845.4637      575          
   2140000   301.4536      -7855.7057      575          
   2141000   336.17684     -7842.0985      575          
   2142000   345.12958     -7839.0938      575          
   2143000   359.69683     -7835.966       575          
   2144000   299.1217      -7853.7456      575          
   2145000   281.91787     -7858.5349      575          
   2146000   325.25156     -7848.0312      575          
   2147000   353.56574     -7842.3359      575          
   2148000   329.72383     -7843.4188      575          
   2149000   282.31133     -7858.54        575          
   2150000   302.23023     -7850.3651      575          
   2151000   267.9264      -7865.6316      575          
   2152000   325.91167     -7843.6576      575          
   2153000   298.46628     -7855.0306      575          
   2154000   290.26777     -7857.867       575          
   2155000   281.61916     -7856.3922      575          
   2156000   303.69296     -7850.0211      575          
   2157000   272.74753     -7862.4259      575          
   2158000   289.40968     -7855.7015      575          
   2159000   307.18013     -7851.2681      575          
   2160000   298.9341      -7853.3745      575          
   2161000   365.39056     -7839.3165      575          
   2162000   271.97134     -7866.1087      575          
   2163000   304.83031     -7849.5216      575          
   2164000   266.71945     -7863.8775      575          
   2165000   284.1957      -7860.1466      575          
   2166000   257.52093     -7867.5358      575          
   2167000   298.67999     -7852.4727      575          
   2168000   276.65825     -7860.6454      575          
   2169000   307.09794     -7856.3507      575          
   2170000   335.57138     -7846.4309      575          
   2171000   280.6265      -7861.016       575          
   2172000   323.7352      -7846.0893      575          
   2173000   285.27481     -7858.5404      575          
   2174000   304.22519     -7850.315       575          
   2175000   329.97397     -7846.2133      575          
   2176000   298.96776     -7849.9425      575          
   2177000   302.3414      -7853.2741      575          
   2178000   301.5022      -7852.8834      575          
   2179000   323.59259     -7847.3824      575          
   2180000   326.18242     -7846.4393      575          
   2181000   301.00679     -7853.4326      575          
   2182000   313.56462     -7850.8589      575          
   2183000   326.10553     -7849.1915      575          
   2184000   293.79508     -7854.465       575          
   2185000   297.12634     -7853.944       575          
   2186000   322.77298     -7845.8419      575          
   2187000   294.47054     -7854.43        575          
   2188000   324.3782      -7848.0559      575          
   2189000   322.01584     -7847.2951      575          
   2190000   305.4217      -7852.4818      575          
   2191000   350.63348     -7839.1369      575          
   2192000   275.36935     -7862.6452      575          
   2193000   291.67769     -7857.9612      575          
   2194000   315.2099      -7852.4381      575          
   2195000   302.1813      -7849.8297      575          
   2196000   284.36512     -7858.7816      575          
   2197000   300.81473     -7855.9966      575          
   2198000   274.58714     -7857.2816      575          
   2199000   336.79703     -7844.0677      575          
   2200000   319.74562     -7847.7769      575          
   2201000   268.93735     -7867.9423      575          
   2202000   332.87232     -7845.9979      575          
   2203000   299.27438     -7852.7317      575          
   2204000   328.22731     -7846.7337      575          
   2205000   337.95619     -7847.0894      575          
   2206000   279.6066      -7859.1722      575          
   2207000   278.82599     -7855.7991      575          
   2208000   304.12653     -7856.1674      575          
   2209000   299.07703     -7852.1755      575          
   2210000   305.63608     -7846.6052      575          
   2211000   294.60878     -7855.5779      575          
   2212000   327.33672     -7846.3782      575          
   2213000   286.20102     -7858.09        575          
   2214000   294.88054     -7853.7615      575          
   2215000   271.18779     -7861.5473      575          
   2216000   307.74256     -7850.9195      575          
   2217000   291.03852     -7859.545       575          
   2218000   277.64006     -7858.6218      575          
   2219000   285.01318     -7851.9344      575          
   2220000   306.26226     -7852.2405      575          
   2221000   302.43958     -7856.7632      575          
   2222000   381.87242     -7831.546       575          
   2223000   324.7439      -7845.3796      575          
   2224000   318.48378     -7849.9681      575          
   2225000   301.88222     -7854.9025      575          
   2226000   377.80421     -7830.4549      575          
   2227000   326.01934     -7845.6323      575          
   2228000   295.04385     -7856.5994      575          
   2229000   302.43393     -7854.9026      575          
   2230000   326.1286      -7849.7874      575          
   2231000   275.51069     -7858.6745      575          
   2232000   305.93249     -7853.917       575          
   2233000   294.25115     -7857.5315      575          
   2234000   331.8158      -7847.9669      575          
   2235000   325.099       -7848.3491      575          
   2236000   309.65491     -7852.0246      575          
   2237000   317.7513      -7846.4351      575          
   2238000   314.66218     -7847.96        575          
   2239000   283.92682     -7859.269       575          
   2240000   283.1226      -7853.9794      575          
   2241000   326.30428     -7846.5204      575          
   2242000   247.0303      -7866.1551      575          
   2243000   318.90784     -7844.7547      575          
   2244000   265.20088     -7862.332       575          
   2245000   308.53366     -7853.3287      575          
   2246000   328.71981     -7844.2005      575          
   2247000   322.33705     -7845.8229      575          
   2248000   290.80384     -7854.7458      575          
   2249000   280.23809     -7862.0956      575          
   2250000   354.82073     -7839.2462      575          
   2251000   270.45702     -7861.2635      575          
   2252000   310.04174     -7852.9538      575          
   2253000   401.1247      -7829.3396      575          
   2254000   306.88809     -7854.4891      575          
   2255000   304.13559     -7848.6623      575          
   2256000   346.06045     -7845.3985      575          
   2257000   258.53011     -7864.5165      575          
   2258000   288.10147     -7858.6583      575          
   2259000   362.56223     -7832.8259      575          
   2260000   268.49141     -7863.3953      575          
   2261000   325.00697     -7850.194       575          
   2262000   286.85062     -7854.3222      575          
   2263000   283.09265     -7861.2152      575          
   2264000   326.24614     -7844.6637      575          
   2265000   279.83458     -7858.3928      575          
   2266000   296.10134     -7857.0977      575          
   2267000   341.50264     -7842.1914      575          
   2268000   298.76743     -7856.6638      575          
   2269000   295.23675     -7853.4749      575          
   2270000   336.04826     -7845.1885      575          
   2271000   295.79016     -7857.5168      575          
   2272000   337.03949     -7841.0308      575          
   2273000   299.35299     -7853.5054      575          
   2274000   328.02939     -7846.6115      575          
   2275000   304.49445     -7851.2453      575          
   2276000   347.07748     -7839.9819      575          
   2277000   296.0503      -7857.4269      575          
   2278000   307.08848     -7850.2299      575          
   2279000   322.89511     -7845.455       575          
   2280000   308.04961     -7846.1311      575          
   2281000   282.71721     -7860.942       575          
   2282000   323.27304     -7848.3428      575          
   2283000   347.64021     -7843.2765      575          
   2284000   302.70048     -7849.973       575          
   2285000   293.89481     -7855.4017      575          
   2286000   323.15128     -7847.4023      575          
   2287000   309.56533     -7851.4241      575          
   2288000   272.83814     -7864.1247      575          
   2289000   301.53575     -7855.8376      575          
   2290000   316.48333     -7851.1389      575          
   2291000   324.63651     -7846.4254      575          
   2292000   302.00665     -7853.5553      575          
   2293000   263.47019     -7862.9333      575          
   2294000   363.10467     -7833.9844      575          
   2295000   306.63821     -7854.6532      575          
   2296000   310.0743      -7849.421       575          
   2297000   283.91249     -7857.7954      575          
   2298000   318.97158     -7844.7386      575          
   2299000   331.58957     -7843.8041      575          
   2300000   304.40784     -7850.2024      575          
   2301000   287.06603     -7858.0467      575          
   2302000   309.34153     -7851.2324      575          
   2303000   284.75171     -7855.6642      575          
   2304000   293.91438     -7859.3437      575          
   2305000   300.21237     -7854.4922      575          
   2306000   308.2176      -7850.502       575          
   2307000   365.33363     -7835.2566      575          
   2308000   323.5637      -7852.0299      575          
   2309000   325.36254     -7848.4905      575          
   2310000   251.0088      -7866.7859      575          
   2311000   293.63232     -7856.8624      575          
   2312000   277.71214     -7858.2282      575          
   2313000   313.91651     -7851.3178      575          
   2314000   277.02025     -7858.1858      575          
   2315000   305.38511     -7853.2137      575          
   2316000   278.90781     -7860.7639      575          
   2317000   336.41803     -7841.893       575          
   2318000   336.31629     -7840.6816      575          
   2319000   298.01735     -7853.5343      575          
   2320000   301.27402     -7852.4904      575          
   2321000   275.37485     -7862.8263      575          
   2322000   351.25676     -7841.206       575          
   2323000   296.39896     -7855.7096      575          
   2324000   302.42761     -7852.6763      575          
   2325000   330.41985     -7848.6068      575          
   2326000   265.24587     -7861.7393      575          
   2327000   327.07963     -7845.9004      575          
   2328000   263.58476     -7859.9038      575          
   2329000   339.44812     -7845.4657      575          
   2330000   363.87393     -7838.7491      575          
   2331000   326.18814     -7844.3493      575          
   2332000   291.86871     -7856.3831      575          
   2333000   348.15028     -7838.4869      575          
   2334000   308.59078     -7847.6778      575          
   2335000   313.59853     -7852.2466      575          
   2336000   302.55477     -7853.1048      575          
   2337000   301.45677     -7856.4418      575          
   2338000   322.34519     -7842.4728      575          
   2339000   265.73294     -7862.61        575          
   2340000   302.40753     -7854.4905      575          
   2341000   302.02917     -7853.1136      575          
   2342000   272.05387     -7856.9758      575          
   2343000   344.32273     -7838.2547      575          
   2344000   259.34148     -7867.0083      575          
   2345000   332.40818     -7847.0099      575          
   2346000   285.22565     -7858.2463      575          
   2347000   318.25597     -7845.2455      575          
   2348000   252.93311     -7866.1346      575          
   2349000   307.22681     -7855.0238      575          
   2350000   386.43634     -7831.8406      575          
   2351000   270.55482     -7861.8498      575          
   2352000   285.87066     -7858.6108      575          
   2353000   273.38159     -7862.9464      575          
   2354000   339.16834     -7841.5153      575          
   2355000   333.71048     -7842.3491      575          
   2356000   303.3152      -7853.2397      575          
   2357000   335.64999     -7849.0997      575          
   2358000   266.8831      -7861.9747      575          
   2359000   353.37235     -7840.9413      575          
   2360000   321.19996     -7847.4612      575          
   2361000   322.20778     -7849.7907      575          
   2362000   332.10476     -7847.9841      575          
   2363000   325.94159     -7846.4715      575          
   2364000   302.26275     -7854.1137      575          
   2365000   307.03079     -7849.024       575          
   2366000   273.8134      -7862.3923      575          
   2367000   339.70978     -7844.3549      575          
   2368000   301.10498     -7846.0273      575          
   2369000   368.55478     -7835.8334      575          
   2370000   293.44143     -7856.1032      575          
   2371000   317.66603     -7848.7024      575          
   2372000   296.03494     -7856.835       575          
   2373000   316.7074      -7850.5227      575          
   2374000   358.74301     -7831.8946      575          
   2375000   330.88531     -7846.8183      575          
   2376000   316.11488     -7852.5168      575          
   2377000   260.9962      -7863.4353      575          
   2378000   286.55856     -7860.2105      575          
   2379000   294.9654      -7856.9054      575          
   2380000   325.33009     -7845.6063      575          
   2381000   315.7682      -7851.5527      575          
   2382000   263.21111     -7863.1867      575          
   2383000   344.04813     -7838.7686      575          
   2384000   293.35149     -7853.9917      575          
   2385000   328.77128     -7844.1889      575          
   2386000   316.60158     -7852.2121      575          
   2387000   296.12449     -7857.2185      575          
   2388000   316.253       -7848.2407      575          
   2389000   293.58162     -7857.0229      575          
   2390000   291.70525     -7852.9403      575          
   2391000   322.57743     -7852.7333      575          
   2392000   333.00362     -7843.5256      575          
   2393000   329.31059     -7841.534       575          
   2394000   275.69402     -7861.381       575          
   2395000   298.4409      -7855.9537      575          
   2396000   298.1842      -7854.8297      575          
   2397000   292.50844     -7849.6273      575          
   2398000   315.29476     -7845.7439      575          
   2399000   293.042       -7853.5315      575          
   2400000   318.73901     -7850.6951      575          
   2401000   294.78116     -7859.3482      575          
   2402000   305.03246     -7852.9319      575          
   2403000   273.5693      -7857.2417      575          
   2404000   292.69571     -7853.0104      575          
   2405000   332.9319      -7842.6792      575          
   2406000   261.63285     -7863.689       575          
   2407000   322.21468     -7847.8701      575          
   2408000   307.95614     -7852.7731      575          
   2409000   322.76906     -7854.0063      575          
   2410000   330.65994     -7846.0845      575          
   2411000   276.25968     -7861.2297      575          
   2412000   307.13411     -7849.7196      575          
   2413000   301.85417     -7855.5681      575          
   2414000   291.52968     -7857.713       575          
   2415000   363.65216     -7831.5596      575          
   2416000   305.25007     -7851.3286      575          
   2417000   306.18819     -7851.0645      575          
   2418000   291.27289     -7854.2321      575          
   2419000   325.30258     -7848.316       575          
   2420000   334.64721     -7844.9896      575          
   2421000   295.06301     -7857.4166      575          
   2422000   335.0403      -7845.8235      575          
   2423000   267.55372     -7859.5608      575          
   2424000   326.01242     -7846.7847      575          
   2425000   316.49676     -7849.1348      575          
   2426000   316.02364     -7857.89        576          
   2427000   320.52613     -7859.9487      576          
   2428000   305.54828     -7864.3374      576          
   2429000   308.20697     -7863.0224      576          
   2430000   268.40688     -7880.1505      576          
   2431000   358.947       -7847.6632      576          
   2432000   282.46009     -7870.9186      576          
   2433000   296.90505     -7864.8946      576          
   2434000   280.93506     -7872.2018      576          
   2435000   281.00158     -7872.48        576          
   2436000   325.0249      -7854.1401      576          
   2437000   300.66588     -7863.0405      576          
   2438000   308.31078     -7865.4143      576          
   2439000   282.19052     -7874.3609      576          
   2440000   308.79685     -7862.5705      576          
   2441000   293.54407     -7871.5146      576          
   2442000   343.82705     -7853.2415      576          
   2443000   272.18317     -7871.0937      576          
   2444000   287.13194     -7869.6793      576          
   2445000   312.7733      -7864.4231      576          
   2446000   285.10577     -7873.2782      576          
   2447000   330.46634     -7856.5933      576          
   2448000   305.65892     -7861.3202      576          
   2449000   296.78615     -7866.4437      576          
   2450000   256.45068     -7877.309       576          
   2451000   324.29953     -7860.7259      576          
   2452000   290.44398     -7869.8239      576          
   2453000   316.4286      -7860.0512      576          
   2454000   273.54586     -7873.8794      576          
   2455000   355.50052     -7849.8606      576          
   2456000   291.55508     -7869.6712      576          
   2457000   313.03355     -7862.8271      576          
   2458000   313.20283     -7863.3307      576          
   2459000   314.65453     -7862.4588      576          
   2460000   337.08094     -7857.385       576          
   2461000   310.16016     -7861.9868      576          
   2462000   295.48886     -7863.9362      576          
   2463000   324.71127     -7862.2085      576          
   2464000   322.74393     -7857.6086      576          
   2465000   350.61572     -7851.2924      576          
   2466000   298.12617     -7866.3794      576          
   2467000   330.94381     -7858.5067      576          
   2468000   309.56298     -7863.1688      576          
   2469000   313.57499     -7862.1265      576          
   2470000   300.79846     -7864.8286      576          
   2471000   261.31493     -7875.2333      576          
   2472000   315.45243     -7860.1778      576          
   2473000   263.55249     -7875.2762      576          
   2474000   335.01788     -7856.4887      576          
   2475000   268.92424     -7876.4683      576          
   2476000   320.09295     -7858.2507      576          
   2477000   243.9972      -7882.7043      576          
   2478000   343.65029     -7853.2795      576          
   2479000   269.81142     -7871.8812      576          
   2480000   326.24281     -7859.5238      576          
   2481000   278.66026     -7871.727       576          
   2482000   327.78313     -7859.4367      576          
   2483000   303.98987     -7864.4542      576          
   2484000   321.46109     -7859.8075      576          
   2485000   293.20574     -7866.4913      576          
   2486000   270.74369     -7872.2841      576          
   2487000   280.11126     -7871.3134      576          
   2488000   311.57508     -7863.6955      576          
   2489000   303.04926     -7865.928       576          
   2490000   302.33292     -7862.4848      576          
   2491000   320.49702     -7867.2208      576          
   2492000   285.50629     -7867.5421      576          
   2493000   293.71845     -7870.6397      576          
   2494000   295.53573     -7872.4452      576          
   2495000   328.15717     -7861.0578      576          
   2496000   281.78704     -7873.878       576          
   2497000   353.53134     -7848.8377      576          
   2498000   287.80942     -7868.1126      576          
   2499000   304.84841     -7867.7774      576          
   2500000   308.70875     -7865.4667      576          
   2501000   290.46296     -7873.4286      576          
   2502000   259.26274     -7877.9433      576          
Loop time of 40807.7 on 8 procs for 2500000 steps with 1728 atoms

Performance: 5.293 ns/day, 4.534 hours/ns, 61.263 timesteps/s, 105.862 katom-step/s
799.9% CPU use with 1 MPI tasks x 8 OpenMP threads

MPI task timing breakdown:
Section |  min time  |  avg time  |  max time  |%varavg| %total
---------------------------------------------------------------
Pair    | 4387.4     | 4387.4     | 4387.4     |   0.0 | 10.75
Bond    | 26.368     | 26.368     | 26.368     |   0.0 |  0.06
Kspace  | 1153.3     | 1153.3     | 1153.3     |   0.0 |  2.83
Neigh   | 215.36     | 215.36     | 215.36     |   0.0 |  0.53
Comm    | 164.69     | 164.69     | 164.69     |   0.0 |  0.40
Output  | 0.12788    | 0.12788    | 0.12788    |   0.0 |  0.00
Modify  | 34848      | 34848      | 34848      |   0.0 | 85.40
Other   |            | 12.11      |            |       |  0.03

Nlocal:           1728 ave        1728 max        1728 min
Histogram: 1 0 0 0 0 0 0 0 0 0
Nghost:          14708 ave       14708 max       14708 min
Histogram: 1 0 0 0 0 0 0 0 0 0
Neighs:    1.09781e+06 ave 1.09781e+06 max 1.09781e+06 min
Histogram: 1 0 0 0 0 0 0 0 0 0

Total # of neighbors = 1097813
Ave neighs/atom = 635.30845
Ave special neighs/atom = 2
Neighbor list builds = 2550687
Dangerous builds = 0
Total wall time: 11:20:07
