LAMMPS (27 Jun 2024)
  using 8 OpenMP thread(s) per MPI task
package omp 0
using multi-threaded neighbor list subroutines
# LAMMPS input script by Simon Gravelle
# For LAMMPS tutorials, see https://lammpstutorials.github.io
# Last tested using the 27Jun2024 LAMMPS version

variable Nstep equal 2500000
variable mu_K equal -3000
variable mu_kcal_mol equal ${mu_K}*0.0019872041
variable mu_kcal_mol equal -3000*0.0019872041
print "mu equal ${mu_kcal_mol}"
mu equal -5.9616123
variable tfac equal 5.0/3.0
variable Nattempt equal 100

units real
boundary p p p
atom_style full
pair_style lj/cut/coul/long 12
kspace_style ewald 1.0e-5
bond_style harmonic
angle_style harmonic
pair_modify mix geometric
special_bonds lj 0.0 0.0 0.0 coul 0.0 0.0 0.0 angle yes

read_data box.data
Reading data file ...
  orthogonal box = (-12.5 -12.5 -12.5) to (12.5 12.5 12.5)
  1 by 1 by 1 MPI processor grid
  reading atom labelmap ...
  reading bond labelmap ...
  reading angle labelmap ...
  reading atoms ...
  150 atoms
  reading velocities ...
  150 velocities
  scanning bonds ...
  1 = max bonds/atom
  scanning angles ...
  1 = max angles/atom
  orthogonal box = (-12.5 -12.5 -12.5) to (12.5 12.5 12.5)
  1 by 1 by 1 MPI processor grid
  reading bonds ...
  100 bonds
  reading angles ...
  50 angles
Finding 1-2 1-3 1-4 neighbors ...
  special bond factors lj:    0        0        0       
  special bond factors coul:  0        0        0       
     2 = max # of 1-2 neighbors
     1 = max # of 1-3 neighbors
     1 = max # of 1-4 neighbors
  100 = # of 1-3 neighbors before angle trim
  100 = # of 1-3 neighbors after angle trim
     2 = max # of special neighbors
  special bonds CPU = 0.000 seconds
  read_data CPU = 0.006 seconds
labelmap atom 1 O 2 C
labelmap bond 1 C-O
labelmap angle 1 O-C-O

group CO2 type C O
150 atoms in group CO2
include parm.lmp
# LAMMPS parameter file for H2O SPCE water model
# For conversion from K to kcal / mol, multiply
# by Boltzmann = 0.0019872041 kcal / (mol * K)

mass O 15.9994
mass C 12.0110

pair_coeff O O 0.164858 3.011
pair_coeff C C 0.05894 2.789

bond_coeff C-O 0.0 1.18 # rigid

angle_coeff O-C-O 0.0 180.0 # rigid

molecule CO2mol CO2.mol
Read molecule template CO2mol:
# LAMMPS molecule file for carbondioxide
  1 molecules
  0 fragments
  3 atoms with max type 2
  2 bonds with max type 1
  1 angles with max type 1
  0 dihedrals with max type 0
  0 impropers with max type 0

fix mynvt CO2 rigid/nvt/small molecule temp 300 300 100 mol CO2mol
  create bodies CPU = 0.000 seconds
  50 rigid bodies with 150 atoms
  1.18 = max distance from body owner to body atom
thermo 1000

run 2000

CITE-CITE-CITE-CITE-CITE-CITE-CITE-CITE-CITE-CITE-CITE-CITE-CITE

Your simulation uses code contributions which should be cited:

- Type Label Framework: https://doi.org/10.1021/acs.jpcb.3c08419

@Article{Gissinger24,
 author = {Jacob R. Gissinger, Ilia Nikiforov, Yaser Afshar, Brendon Waters, Moon-ki Choi, Daniel S. Karls, Alexander Stukowski, Wonpil Im, Hendrik Heinz, Axel Kohlmeyer, and Ellad B. Tadmor},
 title = {Type Label Framework for Bonded Force Fields in LAMMPS},
 journal = {J. Phys. Chem. B},
 year =    2024,
 volume =  128,
 number =  13,
 pages =   {3282â€“-3297}
}

CITE-CITE-CITE-CITE-CITE-CITE-CITE-CITE-CITE-CITE-CITE-CITE-CITE

Ewald initialization ...
  using 12-bit tables for long-range coulomb (src/kspace.cpp:342)
  G vector (1/distance) = 0.21801154
  estimated absolute RMS force accuracy = 0.0034006373
  estimated relative force accuracy = 1.0240918e-05
  KSpace vectors: actual max1d max3d = 257 5 665
                  kxmax kymax kzmax  = 5 5 5
Generated 1 of 1 mixed pair_coeff terms from geometric mixing rule
Last active /omp style is kspace_style ewald/omp
Neighbor list info ...
  update: every = 1 steps, delay = 0 steps, check = yes
  max neighbors/atom: 2000, page size: 100000
  master list distance cutoff = 14
  ghost atom cutoff = 14
  binsize = 7, bins = 4 4 4
  1 neighbor lists, perpetual/occasional/extra = 1 0 0
  (1) pair lj/cut/coul/long/omp, perpetual
      attributes: half, newton on, omp
      pair build: half/bin/newton/omp
      stencil: half/bin/3d
      bin: standard
Per MPI rank memory allocation (min/avg/max) = 26.82 | 26.82 | 26.82 Mbytes
   Step          Temp          E_pair         E_mol          TotEng         Press     
         0   0             -24.115729      0             -24.115729     -139.61173    
      1000   270.80748     -28.024535      0              38.437043      69.359993    
      2000   302.41636     -29.459348      0              44.759684      89.86941     
Loop time of 0.541508 on 8 procs for 2000 steps with 150 atoms

Performance: 319.109 ns/day, 0.075 hours/ns, 3693.388 timesteps/s, 554.008 katom-step/s
796.6% CPU use with 1 MPI tasks x 8 OpenMP threads

MPI task timing breakdown:
Section |  min time  |  avg time  |  max time  |%varavg| %total
---------------------------------------------------------------
Pair    | 0.043634   | 0.043634   | 0.043634   |   0.0 |  8.06
Bond    | 0.018593   | 0.018593   | 0.018593   |   0.0 |  3.43
Kspace  | 0.32856    | 0.32856    | 0.32856    |   0.0 | 60.68
Neigh   | 0.0020739  | 0.0020739  | 0.0020739  |   0.0 |  0.38
Comm    | 0.014857   | 0.014857   | 0.014857   |   0.0 |  2.74
Output  | 2.8359e-05 | 2.8359e-05 | 2.8359e-05 |   0.0 |  0.01
Modify  | 0.13244    | 0.13244    | 0.13244    |   0.0 | 24.46
Other   |            | 0.001326   |            |       |  0.24

Nlocal:            150 ave         150 max         150 min
Histogram: 1 0 0 0 0 0 0 0 0 0
Nghost:           1372 ave        1372 max        1372 min
Histogram: 1 0 0 0 0 0 0 0 0 0
Neighs:           8049 ave        8049 max        8049 min
Histogram: 1 0 0 0 0 0 0 0 0 0

Total # of neighbors = 8049
Ave neighs/atom = 53.66
Ave special neighs/atom = 2
Neighbor list builds = 20
Dangerous builds = 0

fix fgcmc CO2 gcmc 100 ${Nattempt} 0 0 25899 300 ${mu_kcal_mol} 0.1     mol CO2mol tfac_insert ${tfac} full_energy rigid mynvt
fix fgcmc CO2 gcmc 100 100 0 0 25899 300 ${mu_kcal_mol} 0.1     mol CO2mol tfac_insert ${tfac} full_energy rigid mynvt
fix fgcmc CO2 gcmc 100 100 0 0 25899 300 -5.9616123 0.1     mol CO2mol tfac_insert ${tfac} full_energy rigid mynvt
fix fgcmc CO2 gcmc 100 100 0 0 25899 300 -5.9616123 0.1     mol CO2mol tfac_insert 1.66666666666667 full_energy rigid mynvt

variable carbon atom "type==2"
group carbon dynamic all var carbon
dynamic group carbon defined
variable nC equal count(carbon)
fix myat1 all ave/time 10 10 1000 v_nC file number_CO2.dat
variable density equal v_nC*(2*15.9994+12.011)/vol/6.022e23*(1e8)^3
fix myat2 all ave/time 10 10 1000 v_density file density_CO2.dat
compute press all pressure thermo_temp
fix myat3 all ave/time 10 100 1000 c_press file pressure_CO2.dat
thermo_style custom step temp etotal v_nC

run ${Nstep}
run 2500000
Ewald initialization ...
  using 12-bit tables for long-range coulomb (src/kspace.cpp:342)
  G vector (1/distance) = 0.21801154
  estimated absolute RMS force accuracy = 0.0034006373
  estimated relative force accuracy = 1.0240918e-05
  KSpace vectors: actual max1d max3d = 257 5 665
                  kxmax kymax kzmax  = 5 5 5
Generated 1 of 1 mixed pair_coeff terms from geometric mixing rule
Last active /omp style is kspace_style ewald/omp
0 atoms in group FixGCMC:gcmc_exclusion_group:fgcmc
0 atoms in group FixGCMC:rotation_gas_atoms:fgcmc
WARNING: Neighbor exclusions used with KSpace solver may give inconsistent Coulombic energies (src/neighbor.cpp:658)
Per MPI rank memory allocation (min/avg/max) = 26.82 | 26.82 | 26.82 Mbytes
   Step          Temp          TotEng          v_nC     
      2000   302.41636      44.759684      50           
      3000   321.27457     -161.4357       136          
      4000   323.10984     -351.95551      171          
      5000   334.1225      -485.23625      193          
      6000   321.23481     -604.21139      208          
      7000   323.98388     -690.9141       218          
      8000   360.71325     -770.15164      231          
      9000   326.61161     -846.49806      239          
     10000   319.27096     -901.29104      247          
     11000   325.73037     -940.98596      252          
     12000   292.05883     -1012.5183      261          
     13000   318.63345     -1046.018       265          
     14000   282.24662     -1091.6443      269          
     15000   309.0372      -1096.7836      271          
     16000   318.49248     -1112.6727      273          
     17000   287.72479     -1128.1587      274          
     18000   283.99176     -1138.5192      276          
     19000   301.75064     -1150.5177      278          
     20000   307.52748     -1162.9344      279          
     21000   309.07648     -1165.5831      281          
     22000   270.07265     -1201.6896      282          
     23000   267.01516     -1200.6975      282          
     24000   291.12352     -1191.0473      283          
     25000   317.51233     -1188.1167      283          
     26000   289.06198     -1201.1592      283          
     27000   306.69522     -1187.1845      283          
     28000   294.99684     -1222.6965      284          
     29000   305.87359     -1202.0246      284          
     30000   341.22202     -1209.7179      286          
     31000   318.46105     -1220.2358      286          
     32000   255.02933     -1242.6037      286          
     33000   285.10988     -1231.8344      286          
     34000   297.15571     -1233.7008      287          
     35000   283.75666     -1240.7485      287          
     36000   315.36924     -1245.0281      289          
     37000   290.02307     -1257.7756      289          
     38000   344.46851     -1237.8618      289          
     39000   286.06524     -1258.7403      289          
     40000   305.29805     -1241.1017      289          
     41000   344.00141     -1252.0386      290          
     42000   336.35607     -1247.1766      290          
     43000   329.63668     -1255.7026      290          
     44000   310.65026     -1253.2723      290          
     45000   317.95716     -1259.4256      290          
     46000   300.68094     -1272.8391      291          
     47000   272.22927     -1286.9174      291          
     48000   270.39727     -1281.2057      291          
     49000   321.54219     -1272.7769      291          
     50000   254.79176     -1309.9026      292          
     51000   320.92222     -1290.6303      293          
     52000   277.25252     -1298.7685      293          
     53000   329.29365     -1278.3263      293          
     54000   275.12759     -1309.1869      293          
     55000   308.05072     -1290.5556      293          
     56000   280.85848     -1300.1236      293          
     57000   294.82898     -1299.2891      293          
     58000   292.49129     -1303.0941      293          
     59000   363.2641      -1278.2175      293          
     60000   323.27845     -1293.2865      294          
     61000   278.85553     -1312.6878      294          
     62000   327.34126     -1284.6543      294          
     63000   330.30123     -1296.9113      294          
     64000   287.75585     -1305.2672      294          
     65000   302.95967     -1302.7529      294          
     66000   307.70288     -1310.9933      294          
     67000   357.86044     -1292.9587      295          
     68000   280.76233     -1326.8165      295          
     69000   313.22785     -1312.0901      295          
     70000   330.69128     -1304.1135      295          
     71000   326.35169     -1298.0993      295          
     72000   279.31441     -1324.6628      295          
     73000   314.20476     -1315.5365      295          
     74000   303.25313     -1318.4856      295          
     75000   304.14698     -1308.5471      295          
     76000   285.7897      -1320.4583      295          
     77000   272.69215     -1325.6056      295          
     78000   282.79493     -1323.8878      295          
     79000   318.95217     -1310.9973      295          
     80000   308.74253     -1304.9499      295          
     81000   275.06918     -1317.6883      295          
     82000   311.49373     -1303.719       295          
     83000   291.16675     -1328.7494      296          
     84000   292.59736     -1317.858       296          
     85000   320.17589     -1313.7038      296          
     86000   283.736       -1329.4281      296          
     87000   319.11262     -1326.5741      296          
     88000   305.65038     -1314.9756      296          
     89000   334.61061     -1316.4034      296          
     90000   304.08394     -1324.857       296          
     91000   328.70258     -1314.3286      296          
     92000   310.57008     -1322.9288      296          
     93000   288.81549     -1336.0184      296          
     94000   321.04692     -1314.6385      296          
     95000   325.38403     -1324.0627      296          
     96000   328.82268     -1320.5771      296          
     97000   332.95915     -1320.4833      296          
     98000   284.85002     -1338.1256      296          
     99000   345.44836     -1302.091       296          
    100000   262.95887     -1338.6098      296          
    101000   347.31379     -1299.7144      296          
    102000   293.81262     -1336.2355      297          
    103000   284.55641     -1329.7819      297          
    104000   356.23933     -1309.8609      297          
    105000   283.96771     -1345.3112      297          
    106000   257.52236     -1353.4042      297          
    107000   310.36542     -1330.2188      297          
    108000   319.39449     -1328.2674      297          
    109000   246.43984     -1355.408       297          
    110000   293.77854     -1332.0493      297          
    111000   327.51408     -1320.4474      297          
    112000   322.63578     -1327.5847      297          
    113000   339.68826     -1329.6719      297          
    114000   312.67987     -1324.8084      297          
    115000   323.47826     -1323.3895      297          
    116000   290.88157     -1333.6595      297          
    117000   271.08336     -1336.2965      297          
    118000   320.40129     -1324.9258      297          
    119000   340.73784     -1321.941       297          
    120000   300.7979      -1331.5615      297          
    121000   317.229       -1325.5906      297          
    122000   334.67639     -1318.7442      297          
    123000   278.04579     -1346.7601      297          
    124000   317.05502     -1331.0432      297          
    125000   318.36897     -1326.2023      297          
    126000   300.64254     -1333.0847      297          
    127000   331.12945     -1314.5087      297          
    128000   318.78737     -1329.6174      297          
    129000   286.97271     -1332.5045      297          
    130000   333.04034     -1321.6255      297          
    131000   315.45989     -1319.1727      297          
    132000   296.49137     -1336.6827      297          
    133000   288.83461     -1343.9141      297          
    134000   316.75964     -1315.7774      297          
    135000   286.99702     -1342.455       297          
    136000   286.98934     -1345.1731      297          
    137000   365.74276     -1323.9323      297          
    138000   293.17756     -1344.2113      297          
    139000   331.38694     -1318.2715      297          
    140000   285.93881     -1346.5408      297          
    141000   302.42823     -1329.2821      297          
    142000   285.51414     -1341.1463      297          
    143000   323.8088      -1323.6476      297          
    144000   299.66438     -1338.5288      297          
    145000   321.83858     -1329.5116      297          
    146000   320.6209      -1338.4928      298          
    147000   268.58754     -1367.9617      298          
    148000   295.8304      -1343.4519      298          
    149000   313.36659     -1336.9431      298          
    150000   310.04212     -1337.3223      298          
    151000   297.58471     -1340.1993      298          
    152000   328.18578     -1330.8654      298          
    153000   309.43098     -1336.0387      298          
    154000   349.16583     -1322.0149      298          
    155000   280.56956     -1352.2252      298          
    156000   280.20344     -1338.0134      298          
    157000   272.95895     -1357.6464      298          
    158000   311.69961     -1338.424       298          
    159000   297.63829     -1352.2716      298          
    160000   300.71753     -1340.6076      298          
    161000   284.57281     -1339.6377      298          
    162000   280.17757     -1349.6489      298          
    163000   271.05273     -1354.6794      298          
    164000   306.66679     -1342.1526      298          
    165000   330.84912     -1330.2028      298          
    166000   264.68073     -1361.5448      298          
    167000   302.61172     -1342.0445      298          
    168000   291.39875     -1354.9403      298          
    169000   325.74585     -1333.5253      298          
    170000   306.3868      -1341.258       298          
    171000   283.76035     -1354.0234      298          
    172000   327.3613      -1335.0073      298          
    173000   323.92149     -1336.636       298          
    174000   289.79347     -1347.933       298          
    175000   305.86806     -1340.9456      298          
    176000   286.7251      -1347.963       298          
    177000   289.48281     -1344.6406      298          
    178000   258.45473     -1360.8941      298          
    179000   266.54607     -1358.4987      298          
    180000   338.60097     -1328.4062      298          
    181000   313.53402     -1346.6693      298          
    182000   296.66219     -1339.1509      298          
    183000   331.37172     -1326.9231      298          
    184000   370.90226     -1324.4609      298          
    185000   289.4188      -1346.9439      298          
    186000   295.34598     -1347.5915      298          
    187000   283.41711     -1356.5414      298          
    188000   303.7429      -1342.4239      298          
    189000   323.35219     -1336.8348      298          
    190000   288.29043     -1351.1742      298          
    191000   300.68694     -1344.1899      298          
    192000   306.83559     -1340.1803      298          
    193000   313.12901     -1344.4153      298          
    194000   271.49532     -1351.5914      298          
    195000   349.58597     -1329.8276      298          
    196000   288.85645     -1343.942       298          
    197000   300.13717     -1347.0256      298          
    198000   298.74681     -1335.4716      298          
    199000   301.94854     -1346.9538      298          
    200000   279.52669     -1353.6312      298          
    201000   280.98831     -1353.1771      298          
    202000   293.66996     -1350.5017      298          
    203000   313.01929     -1326.2808      298          
    204000   321.09587     -1343.7029      298          
    205000   296.06443     -1338.7653      298          
    206000   315.60432     -1339.6317      298          
    207000   281.97554     -1354.294       298          
    208000   308.72556     -1330.3454      298          
    209000   307.69348     -1348.2075      298          
    210000   360.49917     -1333.9063      298          
    211000   281.02768     -1347.7728      298          
    212000   315.79647     -1333.8585      298          
    213000   265.84302     -1356.0334      298          
    214000   305.4597      -1334.6072      298          
    215000   278.94301     -1353.535       298          
    216000   295.55319     -1343.0908      298          
    217000   316.97635     -1342.6923      298          
    218000   342.97282     -1320.033       298          
    219000   295.60996     -1347.7282      298          
    220000   323.15611     -1333.8384      298          
    221000   287.50648     -1352.8905      298          
    222000   302.02521     -1341.0838      298          
    223000   334.92892     -1331.6404      298          
    224000   348.85779     -1326.9147      298          
    225000   279.61296     -1355.0726      298          
    226000   310.68685     -1345.122       298          
    227000   345.88923     -1327.6398      298          
    228000   281.3347      -1353.2968      298          
    229000   340.79874     -1321.1656      298          
    230000   300.70629     -1351.2484      298          
    231000   303.48607     -1336.6815      298          
    232000   313.04074     -1345.3552      298          
    233000   281.42572     -1354.0145      298          
    234000   305.85481     -1334.5155      298          
    235000   317.00085     -1348.9304      298          
    236000   298.79308     -1346.7667      298          
    237000   290.75237     -1343.5007      298          
    238000   328.40928     -1336.7789      298          
    239000   306.73604     -1335.367       298          
    240000   318.06355     -1344.2253      298          
    241000   343.89022     -1327.8943      298          
    242000   306.59116     -1343.3273      298          
    243000   269.84874     -1348.6735      298          
    244000   311.6682      -1339.1718      298          
    245000   333.84734     -1344.4283      298          
    246000   293.76427     -1345.8286      298          
    247000   355.53479     -1325.5552      298          
    248000   263.00004     -1360.4758      298          
    249000   284.33303     -1345.1661      298          
    250000   303.49626     -1345.3068      298          
    251000   279.50663     -1358.7977      298          
    252000   301.83962     -1335.9976      298          
    253000   294.13033     -1347.6123      298          
    254000   281.46034     -1349.1852      298          
    255000   332.39458     -1327.0048      298          
    256000   271.27031     -1357.5009      298          
    257000   266.41027     -1351.0875      298          
    258000   255.1951      -1363.9859      298          
    259000   314.82044     -1335.0704      298          
    260000   338.06603     -1338.0558      298          
    261000   307.34357     -1349.7729      298          
    262000   302.09001     -1335.6494      298          
    263000   331.7569      -1334.2733      298          
    264000   280.16626     -1355.1362      298          
    265000   336.4665      -1330.1926      298          
    266000   328.95356     -1337.8753      298          
    267000   296.09841     -1353.8563      298          
    268000   274.73641     -1344.3165      298          
    269000   342.80157     -1322.1074      298          
    270000   295.88194     -1354.3383      298          
    271000   292.37547     -1350.5823      298          
    272000   300.82224     -1347.0309      298          
    273000   295.12946     -1351.5409      298          
    274000   322.74855     -1334.8998      298          
    275000   259.41645     -1362.7993      298          
    276000   297.78522     -1343.6359      298          
    277000   329.06629     -1333.1192      298          
    278000   296.69739     -1348.0795      298          
    279000   275.05086     -1352.653       298          
    280000   327.35178     -1325.5426      298          
    281000   290.1152      -1344.3926      298          
    282000   261.58923     -1361.5296      298          
    283000   349.96355     -1319.5849      298          
    284000   332.83421     -1340.3452      298          
    285000   295.03517     -1352.4578      298          
    286000   326.76094     -1331.6393      298          
    287000   295.25338     -1346.4555      298          
    288000   305.14649     -1338.3835      298          
    289000   270.25429     -1357.3793      298          
    290000   316.22916     -1338.2015      298          
    291000   329.0897      -1339.4763      298          
    292000   267.84063     -1356.3142      298          
    293000   295.5435      -1345.0129      298          
    294000   287.07318     -1354.5609      298          
    295000   327.50643     -1336.6299      298          
    296000   299.31397     -1348.1117      298          
    297000   329.56154     -1330.846       298          
    298000   298.33561     -1352.8124      298          
    299000   305.87658     -1341.1297      298          
    300000   285.13614     -1356.4969      298          
    301000   310.24052     -1342.0028      298          
    302000   287.91428     -1346.5416      298          
    303000   325.77196     -1328.5289      298          
    304000   296.78776     -1349.6863      298          
    305000   306.11315     -1335.1342      298          
    306000   334.39007     -1329.5171      298          
    307000   302.64779     -1350.449       298          
    308000   293.05334     -1340.7828      298          
    309000   323.87913     -1330.8803      298          
    310000   339.41825     -1329.8283      298          
    311000   287.13946     -1348.669       298          
    312000   297.76703     -1355.0325      298          
    313000   321.74429     -1334.6818      298          
    314000   299.94697     -1345.3262      298          
    315000   324.85659     -1339.4469      298          
    316000   284.07456     -1353.8106      298          
    317000   307.32454     -1345.3096      298          
    318000   273.91386     -1350.9036      298          
    319000   289.55429     -1352.2294      298          
    320000   313.05722     -1344.3158      298          
    321000   289.7601      -1350.0542      298          
    322000   308.65677     -1343.0409      298          
    323000   289.62113     -1349.2238      298          
    324000   279.20148     -1354.5417      298          
    325000   338.71883     -1335.7475      298          
    326000   317.06166     -1332.3569      298          
    327000   310.4924      -1340.1544      298          
    328000   250.58798     -1366.4256      298          
    329000   315.30737     -1339.49        298          
    330000   312.35913     -1340.7691      298          
    331000   273.88883     -1363.5844      298          
    332000   318.87689     -1339.1221      298          
    333000   319.01017     -1340.9762      298          
    334000   290.00554     -1349.8769      298          
    335000   306.11286     -1342.7885      298          
    336000   303.99732     -1341.0107      298          
    337000   297.68357     -1339.6087      298          
    338000   282.31059     -1354.7614      298          
    339000   326.18224     -1331.1483      298          
    340000   291.76635     -1354.4706      298          
    341000   285.7131      -1349.0273      298          
    342000   352.10624     -1326.5279      298          
    343000   282.87656     -1351.6179      298          
    344000   307.34592     -1334.4194      298          
    345000   275.79111     -1358.501       298          
    346000   283.25615     -1348.0878      298          
    347000   275.71918     -1354.5782      298          
    348000   319.6483      -1328.9648      298          
    349000   305.79894     -1352.7721      298          
    350000   292.8689      -1349.4719      298          
    351000   268.64385     -1358.0405      298          
    352000   293.23522     -1345.9466      298          
    353000   359.08058     -1318.6972      298          
    354000   299.65861     -1354.0922      298          
    355000   295.56093     -1339.8946      298          
    356000   321.65909     -1340.6128      298          
    357000   284.02716     -1353.0396      298          
    358000   323.86137     -1334.3454      298          
    359000   316.35725     -1347.0361      298          
    360000   297.8423      -1341.538       298          
    361000   273.38226     -1361.5798      298          
    362000   300.12434     -1347.066       298          
    363000   330.83216     -1338.9258      298          
    364000   296.53366     -1343.4434      298          
    365000   310.91105     -1341.58        298          
    366000   290.52606     -1346.1662      298          
    367000   334.28493     -1331.4316      298          
    368000   302.04783     -1348.2116      298          
    369000   313.09175     -1342.4755      298          
    370000   304.64481     -1341.2206      298          
    371000   283.75417     -1351.1656      298          
    372000   299.27166     -1351.112       298          
    373000   269.12879     -1358.8329      298          
    374000   297.86555     -1350.0312      298          
    375000   263.14044     -1357.1486      298          
    376000   329.97749     -1331.2987      298          
    377000   307.68859     -1349.0699      298          
    378000   306.4572      -1334.3289      298          
    379000   295.58915     -1347.6246      298          
    380000   300.43471     -1334.9251      298          
    381000   317.68287     -1328.5054      298          
    382000   290.55798     -1352.0333      298          
    383000   302.79911     -1350.5895      298          
    384000   286.70997     -1351.0433      298          
    385000   319.57863     -1340.72        298          
    386000   272.58372     -1348.4319      298          
    387000   328.08971     -1333.4719      298          
    388000   324.80666     -1340.8925      298          
    389000   337.71988     -1331.7191      298          
    390000   299.87621     -1352.0311      298          
    391000   270.23907     -1351.2043      298          
    392000   288.79819     -1349.9128      298          
    393000   342.52186     -1335.926       298          
    394000   293.08606     -1352.2619      298          
    395000   322.68239     -1332.8932      298          
    396000   347.30658     -1330.8522      298          
    397000   299.15834     -1345.2211      298          
    398000   315.19273     -1332.9665      298          
    399000   318.02206     -1338.138       298          
    400000   310.49123     -1337.2215      298          
    401000   299.16573     -1345.4408      298          
    402000   301.64782     -1349.738       298          
    403000   302.41997     -1337.7621      298          
    404000   287.17493     -1351.6746      298          
    405000   321.17427     -1335.2184      298          
    406000   297.50268     -1346.1245      298          
    407000   271.23891     -1361.7455      298          
    408000   301.43408     -1340.2965      298          
    409000   286.82097     -1357.6138      298          
    410000   324.97931     -1329.721       298          
    411000   308.46913     -1347.0283      298          
    412000   282.31699     -1346.8761      298          
    413000   311.78798     -1341.7192      298          
    414000   303.59246     -1345.5608      298          
    415000   299.63376     -1350.6606      298          
    416000   315.52749     -1341.3451      298          
    417000   287.88536     -1349.5527      298          
    418000   316.35228     -1337.532       298          
    419000   290.72396     -1350.9139      298          
    420000   281.82054     -1352.2746      298          
    421000   306.76885     -1335.7703      298          
    422000   317.97446     -1338.3348      298          
    423000   331.44413     -1337.8788      298          
    424000   305.08188     -1344.7924      298          
    425000   285.67556     -1352.7474      298          
    426000   296.69324     -1349.9418      298          
    427000   311.54831     -1334.0332      298          
    428000   284.22987     -1362.4526      298          
    429000   273.2831      -1353.0012      298          
    430000   349.4295      -1337.8719      298          
    431000   313.27393     -1352.0074      298          
    432000   256.28221     -1356.9155      298          
    433000   313.54064     -1335.0613      298          
    434000   296.5472      -1337.7165      298          
    435000   291.48025     -1352.0306      298          
    436000   288.01878     -1352.0587      298          
    437000   294.73942     -1342.0404      298          
    438000   347.15371     -1326.8066      298          
    439000   278.69561     -1352.2142      298          
    440000   302.01884     -1340.6748      298          
    441000   320.87333     -1342.6979      298          
    442000   289.1652      -1356.7296      298          
    443000   324.75201     -1334.1412      298          
    444000   313.70747     -1340.1337      298          
    445000   308.78009     -1342.0469      298          
    446000   285.98857     -1354.8293      298          
    447000   316.66944     -1339.2616      298          
    448000   276.92977     -1351.671       298          
    449000   273.68636     -1351.2765      298          
    450000   327.54116     -1332.0492      298          
    451000   355.523       -1329.7741      298          
    452000   302.74347     -1348.4772      298          
    453000   317.32469     -1336.9319      298          
    454000   299.52866     -1349.5364      298          
    455000   309.63542     -1346.2318      298          
    456000   266.19351     -1350.2173      298          
    457000   319.55999     -1336.2588      298          
    458000   321.92482     -1344.7471      298          
    459000   331.23848     -1330.605       298          
    460000   322.34638     -1344.0567      298          
    461000   268.5601      -1360.1103      298          
    462000   325.36029     -1337.0529      298          
    463000   269.89379     -1360.605       298          
    464000   281.33847     -1351.3659      298          
    465000   309.44835     -1350.8018      298          
    466000   305.08676     -1341.8016      298          
    467000   342.12892     -1323.8322      298          
    468000   306.26141     -1349.3355      298          
    469000   309.66928     -1337.7707      298          
    470000   272.54811     -1358.6881      298          
    471000   309.33673     -1342.6515      298          
    472000   286.55135     -1346.1517      298          
    473000   277.4691      -1359.5522      298          
    474000   292.67473     -1352.2672      298          
    475000   298.79131     -1339.8883      298          
    476000   329.91929     -1333.469       298          
    477000   323.7048      -1346.9242      298          
    478000   298.40829     -1352.7777      298          
    479000   334.51329     -1334.8996      298          
    480000   308.05518     -1349.6037      298          
    481000   284.91184     -1348.7599      298          
    482000   277.60789     -1361.8053      298          
    483000   296.13625     -1342.2066      298          
    484000   279.64596     -1352.4234      298          
    485000   334.27585     -1326.5074      298          
    486000   318.94215     -1340.1451      298          
    487000   283.47394     -1358.2593      298          
    488000   290.64387     -1349.8312      298          
    489000   337.58451     -1330.2676      298          
    490000   284.94514     -1356.0114      298          
    491000   333.08314     -1327.5464      298          
    492000   319.71006     -1351.9663      298          
    493000   278.4797      -1348.5831      298          
    494000   312.23074     -1345.6994      298          
    495000   327.26718     -1343.617       298          
    496000   312.96717     -1343.5662      298          
    497000   314.13622     -1347.9831      298          
    498000   271.7125      -1357.6572      298          
    499000   272.94847     -1363.0436      298          
    500000   311.06105     -1341.5969      298          
    501000   330.51109     -1341.7732      298          
    502000   282.16424     -1356.6234      298          
    503000   296.64552     -1340.3214      298          
    504000   333.32704     -1334.8888      298          
    505000   291.68556     -1345.6138      298          
    506000   335.56381     -1328.2899      298          
    507000   271.94332     -1362.1232      298          
    508000   249.81875     -1369.2278      298          
    509000   276.50383     -1346.5038      298          
    510000   350.34457     -1331.0811      298          
    511000   308.08941     -1346.0937      298          
    512000   306.60906     -1342.3491      298          
    513000   298.00868     -1339.5575      298          
    514000   283.25797     -1354.1363      298          
    515000   323.91843     -1336.1937      298          
    516000   315.98017     -1348.0916      298          
    517000   275.30992     -1358.1345      298          
    518000   307.02723     -1344.037       298          
    519000   286.42704     -1363.2267      298          
    520000   316.79564     -1333.421       298          
    521000   308.86591     -1350.0136      298          
    522000   301.41527     -1349.2472      298          
    523000   296.15904     -1340.9388      298          
    524000   315.41327     -1335.869       298          
    525000   281.64117     -1357.0735      298          
    526000   346.08295     -1322.8074      298          
    527000   292.51621     -1351.2866      298          
    528000   314.99076     -1339.35        298          
    529000   320.4551      -1334.2209      298          
    530000   263.94227     -1368.3565      298          
    531000   322.63563     -1333.0973      298          
    532000   311.38602     -1346.9782      298          
    533000   296.19235     -1357.3659      298          
    534000   296.50592     -1349.1929      298          
    535000   287.5457      -1349.6546      298          
    536000   351.91478     -1332.1041      298          
    537000   293.75213     -1350.7115      298          
    538000   268.62015     -1352.7547      298          
    539000   323.72829     -1330.0189      298          
    540000   292.55674     -1341.958       298          
    541000   283.52216     -1354.9299      298          
    542000   301.75579     -1345.8275      298          
    543000   304.04056     -1345.5242      298          
    544000   327.88956     -1338.6323      298          
    545000   301.36528     -1344.6692      298          
    546000   288.38413     -1350.7223      298          
    547000   259.138       -1361.5096      298          
    548000   298.45656     -1338.8831      298          
    549000   281.11991     -1357.7987      298          
    550000   323.40144     -1341.0295      298          
    551000   269.52096     -1363.1206      298          
    552000   281.45775     -1352.4457      298          
    553000   287.65182     -1356.8202      298          
    554000   314.15922     -1339.8783      298          
    555000   332.93819     -1336.7079      298          
    556000   267.50488     -1358.9589      298          
    557000   388.03316     -1316.2921      298          
    558000   314.8238      -1349.9045      298          
    559000   314.11677     -1340.9141      298          
    560000   333.51515     -1335.7923      298          
    561000   285.38162     -1354.6744      298          
    562000   255.18086     -1360.1427      298          
    563000   313.44416     -1341.6764      298          
    564000   290.15206     -1350.1089      298          
    565000   310.41319     -1336.4072      298          
    566000   262.47055     -1357.1967      298          
    567000   327.20397     -1329.4397      298          
    568000   308.19778     -1334.965       298          
    569000   328.47056     -1333.2807      298          
    570000   327.29263     -1335.4671      298          
    571000   307.12235     -1336.225       298          
    572000   315.24011     -1347.6603      298          
    573000   281.20319     -1350.4517      298          
    574000   320.89971     -1339.0099      298          
    575000   307.5866      -1337.7871      298          
    576000   270.68484     -1355.112       298          
    577000   331.83403     -1333.2632      298          
    578000   317.5991      -1341.964       298          
    579000   300.4366      -1347.5615      298          
    580000   307.47319     -1341.2634      298          
    581000   298.22389     -1339.478       298          
    582000   282.36228     -1348.986       298          
    583000   315.81319     -1331.2553      298          
    584000   311.15863     -1345.1773      298          
    585000   337.85879     -1336.1028      298          
    586000   338.98393     -1330.4806      298          
    587000   343.29412     -1340.1974      298          
    588000   280.02677     -1362.8265      298          
    589000   288.29295     -1355.9967      298          
    590000   316.12497     -1346.5301      298          
    591000   298.12234     -1350.9441      298          
    592000   319.91775     -1338.1987      298          
    593000   272.36453     -1353.2546      298          
    594000   338.44442     -1333.847       298          
    595000   291.43603     -1343.3076      298          
    596000   279.93419     -1359.0868      298          
    597000   320.92757     -1326.3798      298          
    598000   276.56161     -1358.483       298          
    599000   290.57451     -1350.3853      298          
    600000   313.97268     -1344.2898      298          
    601000   308.25895     -1345.7892      298          
    602000   278.71771     -1353.4402      298          
    603000   341.0185      -1329.9298      298          
    604000   288.36328     -1353.7235      298          
    605000   285.87215     -1358.1067      298          
    606000   300.05955     -1338.4791      298          
    607000   264.50429     -1360.5899      298          
    608000   327.79974     -1333.41        298          
    609000   311.09237     -1342.5381      298          
    610000   282.58932     -1354.035       298          
    611000   319.16754     -1334.8361      298          
    612000   324.67998     -1340.7189      298          
    613000   267.32928     -1361.5173      298          
    614000   325.41385     -1328.6015      298          
    615000   273.67873     -1356.9502      298          
    616000   275.39738     -1357.4531      298          
    617000   305.05574     -1347.1007      298          
    618000   293.22748     -1349.451       298          
    619000   278.3179      -1351.4718      298          
    620000   300.46289     -1355.0803      298          
    621000   293.48226     -1348.5065      298          
    622000   353.06175     -1328.7242      298          
    623000   280.59526     -1351.9047      298          
    624000   286.81467     -1354.9576      298          
    625000   305.76052     -1334.585       298          
    626000   273.57321     -1361.2384      298          
    627000   313.60777     -1345.2794      298          
    628000   306.81472     -1351.6494      298          
    629000   314.56086     -1343.1691      298          
    630000   317.85014     -1343.067       298          
    631000   312.19018     -1354.0097      298          
    632000   278.40548     -1356.6231      298          
    633000   313.4925      -1340.4875      298          
    634000   311.96823     -1348.6989      298          
    635000   293.81006     -1345.5029      298          
    636000   346.09055     -1338.3309      298          
    637000   294.25617     -1351.4929      298          
    638000   283.18526     -1363.4093      298          
    639000   316.59115     -1341.6083      298          
    640000   292.54465     -1355.658       298          
    641000   324.39339     -1334.7429      298          
    642000   318.59173     -1339.6435      298          
    643000   308.15664     -1343.0318      298          
    644000   291.42029     -1343.9828      298          
    645000   299.62644     -1344.4529      298          
    646000   280.15456     -1352.515       298          
    647000   286.41305     -1347.2591      298          
    648000   294.43883     -1342.6804      298          
    649000   326.09127     -1343.5694      298          
    650000   298.86611     -1353.3343      298          
    651000   271.38768     -1352.1712      298          
    652000   321.00393     -1348.5891      298          
    653000   274.13091     -1359.8448      298          
    654000   342.38838     -1325.6403      298          
    655000   299.22183     -1347.1916      298          
    656000   289.47633     -1350.287       298          
    657000   304.79999     -1340.9942      298          
    658000   311.05612     -1352.3666      298          
    659000   329.43006     -1337.5112      298          
    660000   282.72347     -1354.2522      298          
    661000   331.76486     -1332.5689      298          
    662000   302.46571     -1349.5966      298          
    663000   311.66891     -1336.9481      298          
    664000   289.75571     -1350.5182      298          
    665000   297.50513     -1350.0695      298          
    666000   295.62835     -1348.0661      298          
    667000   365.52328     -1321.1131      298          
    668000   313.18691     -1349.7973      298          
    669000   303.80917     -1351.3152      298          
    670000   296.38347     -1346.2624      298          
    671000   280.26704     -1347.5073      298          
    672000   279.36214     -1359.1266      298          
    673000   300.22328     -1342.3189      298          
    674000   322.96617     -1339.6948      298          
    675000   288.0208      -1357.5457      298          
    676000   274.81164     -1357.1593      298          
    677000   324.59676     -1334.8031      298          
    678000   311.96509     -1353.4914      298          
    679000   277.82434     -1354.0563      298          
    680000   327.63108     -1340.3018      298          
    681000   266.36265     -1353.5871      298          
    682000   336.26656     -1337.3845      298          
    683000   292.05381     -1347.3215      298          
    684000   332.02933     -1330.1866      298          
    685000   319.48483     -1340.3261      298          
    686000   306.41724     -1338.622       298          
    687000   285.51609     -1360.109       298          
    688000   290.13401     -1349.7554      298          
    689000   324.259       -1343.8956      298          
    690000   310.68563     -1342.7611      298          
    691000   338.51252     -1333.3266      298          
    692000   310.27517     -1345.6623      298          
    693000   313.46313     -1335.8439      298          
    694000   315.35296     -1336.6257      298          
    695000   309.64774     -1354.0539      298          
    696000   317.8574      -1342.6592      298          
    697000   312.04462     -1348.7108      298          
    698000   297.67912     -1352.5119      298          
    699000   315.32441     -1354.4103      298          
    700000   268.6316      -1354.1434      298          
    701000   318.1068      -1338.1265      298          
    702000   352.01317     -1331.9709      298          
    703000   296.10752     -1355.2801      298          
    704000   293.3485      -1358.2155      298          
    705000   286.43664     -1360.3681      298          
    706000   275.69849     -1363.6034      298          
    707000   306.7731      -1339.6549      298          
    708000   282.76187     -1356.3851      298          
    709000   318.72287     -1327.9009      298          
    710000   304.48362     -1347.6433      298          
    711000   295.9157      -1354.8849      298          
    712000   321.13109     -1339.2735      298          
    713000   287.39717     -1353.4343      298          
    714000   298.96213     -1345.693       298          
    715000   298.27966     -1353.6013      298          
    716000   286.83862     -1352.4668      298          
    717000   323.91809     -1333.2934      298          
    718000   274.82546     -1362.6686      298          
    719000   316.95805     -1340.9505      298          
    720000   295.17971     -1353.9379      298          
    721000   283.78214     -1358.3487      298          
    722000   358.37824     -1329.7624      298          
    723000   313.36479     -1350.9648      298          
    724000   384.31222     -1312.6619      298          
    725000   325.62694     -1334.622       298          
    726000   301.02241     -1351.4529      298          
    727000   273.10043     -1362.7817      298          
    728000   301.01487     -1346.3373      298          
    729000   297.43299     -1346.565       298          
    730000   286.53578     -1351.4332      298          
    731000   337.90679     -1344.1055      298          
    732000   291.18791     -1357.4987      298          
    733000   270.8552      -1353.609       298          
    734000   321.302       -1339.918       298          
    735000   308.68318     -1348.0595      298          
    736000   321.85788     -1334.2798      298          
    737000   274.1723      -1352.1678      298          
    738000   348.33224     -1326.0193      298          
    739000   300.78431     -1348.1781      298          
    740000   296.29842     -1348.6108      298          
    741000   278.53865     -1355.4176      298          
    742000   307.6957      -1333.757       298          
    743000   306.95192     -1335.9194      298          
    744000   298.81955     -1348.0016      298          
    745000   332.78296     -1339.7123      298          
    746000   282.56129     -1364.4831      298          
    747000   273.79937     -1353.9472      298          
    748000   289.19815     -1351.3154      298          
    749000   311.13542     -1338.9531      298          
    750000   281.07376     -1362.5008      298          
    751000   303.84767     -1348.7746      298          
    752000   336.02633     -1340.3624      298          
    753000   300.57503     -1344.19        298          
    754000   329.38177     -1337.922       298          
    755000   313.97791     -1344.2291      298          
    756000   301.04455     -1360.3389      298          
    757000   334.14813     -1338.0519      298          
    758000   279.29337     -1358.9871      298          
    759000   293.47066     -1341.9399      298          
    760000   295.50194     -1336.6001      298          
    761000   315.50022     -1340.2628      298          
    762000   274.46379     -1358.0643      298          
    763000   315.29537     -1335.8936      298          
    764000   300.59262     -1346.0906      298          
    765000   320.00438     -1342.6944      298          
    766000   338.61706     -1338.6452      298          
    767000   301.86865     -1346.2999      298          
    768000   267.60257     -1366.9021      298          
    769000   288.34008     -1349.7835      298          
    770000   278.58989     -1350.3084      298          
    771000   342.36651     -1324.7655      298          
    772000   297.7603      -1349.4449      298          
    773000   277.6186      -1349.3671      298          
    774000   264.38964     -1355.7974      298          
    775000   309.1352      -1346.5328      298          
    776000   294.39773     -1354.7156      298          
    777000   325.98189     -1331.5224      298          
    778000   315.64573     -1342.0575      298          
    779000   295.41521     -1355.5401      298          
    780000   302.64289     -1350.3051      298          
    781000   280.49901     -1356.3473      298          
    782000   334.35817     -1337.7262      298          
    783000   297.8023      -1353.7086      298          
    784000   312.43157     -1341.4055      298          
    785000   303.60185     -1354.0208      298          
    786000   299.5673      -1354.7866      298          
    787000   291.48986     -1352.393       298          
    788000   305.66879     -1348.8444      298          
    789000   285.13947     -1356.3571      298          
    790000   272.75385     -1359.3225      298          
    791000   353.97836     -1330.0556      298          
    792000   304.77798     -1351.7089      298          
    793000   283.09887     -1352.3594      298          
    794000   306.96731     -1346.7658      298          
    795000   255.69927     -1361.9034      298          
    796000   322.56655     -1335.9154      298          
    797000   276.71737     -1352.8437      298          
    798000   315.35962     -1342.8269      298          
    799000   276.03734     -1364.4201      298          
    800000   272.61749     -1354.769       298          
    801000   288.14853     -1355.7934      298          
    802000   269.42475     -1360.5718      298          
    803000   299.30664     -1355.8632      298          
    804000   313.78654     -1339.9304      298          
    805000   314.5951      -1350.722       298          
    806000   282.00988     -1350.9878      298          
    807000   301.1606      -1348.3046      298          
    808000   315.74833     -1339.5082      298          
    809000   284.03566     -1347.817       298          
    810000   311.41614     -1343.7918      298          
    811000   287.4373      -1358.9788      298          
    812000   340.72392     -1337.675       298          
    813000   304.84638     -1346.5765      298          
    814000   331.44183     -1339.077       298          
    815000   343.57176     -1329.4606      298          
    816000   290.28601     -1354.8554      298          
    817000   308.95282     -1345.5754      298          
    818000   313.46109     -1346.5632      298          
    819000   314.89154     -1344.3469      298          
    820000   304.281       -1352.5785      298          
    821000   299.32553     -1357.8878      298          
    822000   325.64908     -1332.1993      298          
    823000   287.69519     -1361.7848      298          
    824000   271.8808      -1367.5802      298          
    825000   338.61786     -1334.1031      298          
    826000   265.9315      -1370.1437      298          
    827000   306.06145     -1349.3776      298          
    828000   306.88126     -1354.2562      298          
    829000   312.09301     -1348.7023      298          
    830000   339.28243     -1337.3205      298          
    831000   351.45668     -1340.866       298          
    832000   280.42011     -1358.2272      298          
    833000   319.28893     -1342.1825      298          
    834000   293.37973     -1359.9672      298          
    835000   300.26201     -1346.7782      298          
    836000   310.05517     -1350.6699      298          
    837000   314.31249     -1350.0815      298          
    838000   297.23629     -1354.2771      298          
    839000   294.67316     -1353.3212      298          
    840000   303.06144     -1356.7487      298          
    841000   331.89077     -1333.7805      298          
    842000   307.75916     -1355.78        298          
    843000   330.86243     -1338.5083      298          
    844000   308.81183     -1353.5033      298          
    845000   299.58151     -1349.4161      298          
    846000   269.79299     -1354.5372      298          
    847000   339.667       -1338.3178      298          
    848000   314.63983     -1347.8655      298          
    849000   275.53894     -1361.6136      298          
    850000   350.9893      -1331.0803      298          
    851000   335.53607     -1343.4791      298          
    852000   312.09475     -1351.0223      298          
    853000   334.09895     -1339.8811      298          
    854000   288.91124     -1356.8639      298          
    855000   309.22197     -1345.3049      298          
    856000   309.42333     -1341.4862      298          
    857000   297.70137     -1356.0016      298          
    858000   326.78535     -1338.4598      298          
    859000   336.19023     -1341.3416      298          
    860000   286.8145      -1360.9622      298          
    861000   291.91212     -1348.1825      298          
    862000   302.39129     -1352.2139      298          
    863000   286.93903     -1356.1411      298          
    864000   310.00405     -1340.9077      298          
    865000   297.77286     -1352.3386      298          
    866000   316.68439     -1346.7571      298          
    867000   284.70788     -1356.9333      298          
    868000   304.33739     -1345.1481      298          
    869000   298.99384     -1350.4673      298          
    870000   321.88693     -1345.3003      298          
    871000   302.80509     -1355.1644      298          
    872000   347.28894     -1338.188       298          
    873000   318.07278     -1342.0178      298          
    874000   336.25527     -1339.5826      298          
    875000   315.88135     -1354.1363      298          
    876000   313.0398      -1338.9829      298          
    877000   289.70037     -1353.9769      298          
    878000   300.06653     -1360.4157      298          
    879000   304.70804     -1340.1267      298          
    880000   279.49115     -1363.8544      298          
    881000   306.15404     -1347.2963      298          
    882000   344.92105     -1337.4199      298          
    883000   332.14188     -1349.2419      298          
    884000   287.06623     -1359.1407      298          
    885000   325.32964     -1339.923       298          
    886000   287.64749     -1361.6491      298          
    887000   309.67451     -1352.6601      298          
    888000   316.67999     -1357.9512      298          
    889000   341.4714      -1335.9507      298          
    890000   247.02024     -1380.2616      298          
    891000   331.08702     -1340.325       298          
    892000   295.20929     -1341.4066      298          
    893000   328.7249      -1340.0966      298          
    894000   326.27302     -1348.3581      298          
    895000   345.34766     -1331.5689      298          
    896000   289.35002     -1355.8532      298          
    897000   320.82499     -1346.1313      298          
    898000   306.03451     -1355.4658      298          
    899000   278.22935     -1355.5         298          
    900000   292.8814      -1365.208       298          
    901000   308.33027     -1344.0101      298          
    902000   330.93918     -1347.7177      298          
    903000   332.27448     -1337.3927      298          
    904000   327.16193     -1345.3422      298          
    905000   315.04431     -1355.6055      298          
    906000   284.24881     -1355.9731      298          
    907000   310.1559      -1344.6522      298          
    908000   298.8876      -1347.8012      298          
    909000   276.3127      -1364.9189      298          
    910000   340.80894     -1332.3746      298          
    911000   326.33398     -1350.9942      298          
    912000   330.75867     -1337.6872      298          
    913000   312.61216     -1350.6762      298          
    914000   267.53184     -1360.8556      298          
    915000   342.21573     -1346.8425      298          
    916000   301.64496     -1340.4194      298          
    917000   308.66023     -1345.0498      298          
    918000   278.72668     -1361.1749      298          
    919000   298.88701     -1351.9572      298          
    920000   319.80952     -1337.5195      298          
    921000   278.34237     -1368.649       298          
    922000   281.02597     -1354.3037      298          
    923000   257.88023     -1368.7752      298          
    924000   343.01585     -1337.629       298          
    925000   289.7262      -1363.1309      298          
    926000   316.62631     -1343.991       298          
    927000   290.44415     -1357.4556      298          
    928000   296.01316     -1353.8256      298          
    929000   273.69978     -1360.7131      298          
    930000   273.90922     -1363.9198      298          
    931000   329.52577     -1329.2146      298          
    932000   335.10886     -1346.3028      298          
    933000   278.65425     -1356.0288      298          
    934000   329.64531     -1344.4542      298          
    935000   310.51507     -1345.8495      298          
    936000   315.99504     -1343.1637      298          
    937000   290.84808     -1359.0262      298          
    938000   329.40138     -1337.7598      298          
    939000   278.03246     -1360.9096      298          
    940000   305.61711     -1341.3157      298          
    941000   307.56322     -1351.6072      298          
    942000   309.76164     -1357.6677      298          
    943000   301.96028     -1337.7545      298          
    944000   290.03731     -1353.7576      298          
    945000   293.84433     -1344.8048      298          
    946000   298.52324     -1354.3946      298          
    947000   272.29035     -1368.1436      298          
    948000   306.49346     -1351.1256      298          
    949000   315.41019     -1349.4757      298          
    950000   317.79972     -1350.7047      298          
    951000   283.13376     -1359.0509      298          
    952000   313.89464     -1341.2503      298          
    953000   328.91233     -1340.2395      298          
    954000   291.85364     -1358.8054      298          
    955000   285.54397     -1348.4516      298          
    956000   332.86488     -1332.1936      298          
    957000   262.04541     -1362.6155      298          
    958000   299.17601     -1344.1217      298          
    959000   271.38017     -1359.4263      298          
    960000   349.25205     -1327.58        298          
    961000   307.86537     -1360.545       298          
    962000   288.49081     -1356.1869      298          
    963000   332.09294     -1336.707       298          
    964000   296.6301      -1358.9394      298          
    965000   305.64029     -1357.4578      298          
    966000   323.74793     -1342.897       298          
    967000   293.19207     -1356.8612      298          
    968000   309.28085     -1343.7917      298          
    969000   337.59326     -1348.4797      298          
    970000   291.04341     -1357.5401      298          
    971000   338.59729     -1331.3166      298          
    972000   305.02811     -1354.1617      298          
    973000   288.28074     -1359.0404      298          
    974000   316.16906     -1340.3531      298          
    975000   297.4907      -1358.4256      298          
    976000   327.68102     -1344.3135      298          
    977000   250.69716     -1368.4783      298          
    978000   301.59812     -1345.3373      298          
    979000   283.91065     -1360.8461      298          
    980000   343.64833     -1337.4059      298          
    981000   297.27905     -1357.3062      298          
    982000   278.32803     -1368.854       298          
    983000   314.87279     -1345.9619      298          
    984000   316.8563      -1348.5171      298          
    985000   267.75762     -1370.3988      298          
    986000   308.71117     -1356.7822      298          
    987000   308.17585     -1352.4804      298          
    988000   320.84213     -1341.8718      298          
    989000   300.22523     -1354.1515      298          
    990000   307.73538     -1351.6976      298          
    991000   308.50483     -1358.0088      298          
    992000   302.68081     -1355.5162      298          
    993000   275.95264     -1361.5124      298          
    994000   293.39837     -1349.6734      298          
    995000   275.09865     -1366.2192      298          
    996000   287.48714     -1358.583       298          
    997000   300.32039     -1350.6758      298          
    998000   292.98929     -1350.4828      298          
    999000   294.80768     -1347.7821      298          
   1000000   318.41127     -1349.4813      298          
   1001000   273.62213     -1363.5164      298          
   1002000   284.10096     -1353.0823      298          
   1003000   316.45266     -1341.4969      298          
   1004000   347.94078     -1335.6295      298          
   1005000   315.93792     -1345.0056      298          
   1006000   262.3554      -1368.5942      298          
   1007000   339.43132     -1337.6349      298          
   1008000   316.69469     -1351.6924      298          
   1009000   302.40021     -1351.2244      298          
   1010000   322.43995     -1348.6897      298          
   1011000   287.37183     -1354.5124      298          
   1012000   317.00587     -1343.7921      298          
   1013000   290.15685     -1364.4376      298          
   1014000   337.92445     -1331.1356      298          
   1015000   276.92919     -1365.1139      298          
   1016000   275.09392     -1355.4053      298          
   1017000   279.60844     -1350.4481      298          
   1018000   329.82424     -1346.1361      298          
   1019000   278.17877     -1363.9402      298          
   1020000   300.76581     -1350.9692      298          
   1021000   322.58384     -1344.3391      298          
   1022000   286.95232     -1355.5551      298          
   1023000   267.8836      -1351.0527      298          
   1024000   347.12129     -1336.8221      298          
   1025000   332.73638     -1339.9437      298          
   1026000   321.49436     -1346.0464      298          
   1027000   289.04367     -1366.4033      298          
   1028000   269.52395     -1367.9453      298          
   1029000   298.42889     -1349.9671      298          
   1030000   293.69646     -1359.3585      298          
   1031000   286.29411     -1350.8685      298          
   1032000   280.29824     -1365.2257      298          
   1033000   281.88618     -1354.2118      298          
   1034000   307.55943     -1349.9202      298          
   1035000   277.62496     -1361.1245      298          
   1036000   323.11812     -1340.949       298          
   1037000   258.3103      -1374.5538      298          
   1038000   316.60189     -1339.9988      298          
   1039000   319.65165     -1354.3175      298          
   1040000   297.93112     -1350.6623      298          
   1041000   298.26887     -1349.6231      298          
   1042000   319.8573      -1343.5935      298          
   1043000   268.57615     -1365.5237      298          
   1044000   324.96774     -1340.8146      298          
   1045000   332.75661     -1339.7289      298          
   1046000   272.25052     -1369.0397      298          
   1047000   307.04821     -1339.144       298          
   1048000   273.72826     -1369.572       298          
   1049000   279.83968     -1364.3817      298          
   1050000   309.51268     -1338.6823      298          
   1051000   307.15184     -1351.9986      298          
   1052000   301.8792      -1349.5126      298          
   1053000   306.09985     -1356.899       299          
   1054000   329.37708     -1349.8674      299          
   1055000   268.23083     -1365.9288      299          
   1056000   339.38998     -1339.9064      299          
   1057000   296.92705     -1367.246       299          
   1058000   275.73587     -1369.7439      299          
   1059000   324.15482     -1351.1423      299          
   1060000   285.56817     -1364.8232      299          
   1061000   332.14585     -1348.5858      299          
   1062000   286.9471      -1354.1482      299          
   1063000   322.5347      -1361.5671      299          
   1064000   265.44066     -1368.8995      299          
   1065000   316.57315     -1356.026       299          
   1066000   304.29659     -1353.4014      299          
   1067000   313.25232     -1362.8467      299          
   1068000   304.55025     -1356.7569      299          
   1069000   288.5063      -1362.9285      299          
   1070000   301.9287      -1362.6042      299          
   1071000   273.29337     -1372.3522      299          
   1072000   334.91261     -1337.8916      299          
   1073000   295.12952     -1370.8231      299          
   1074000   302.15643     -1356.4962      299          
   1075000   311.54758     -1356.3561      299          
   1076000   271.14004     -1370.249       299          
   1077000   272.38962     -1376.938       299          
   1078000   325.90849     -1340.7164      299          
   1079000   300.07688     -1361.8392      299          
   1080000   313.51844     -1350.7816      299          
   1081000   323.25867     -1355.6319      299          
   1082000   321.01629     -1361.2989      299          
   1083000   290.7627      -1365.0465      299          
   1084000   291.82657     -1358.7041      299          
   1085000   322.7662      -1353.0725      299          
   1086000   291.67466     -1373.8296      300          
   1087000   317.78617     -1347.4571      300          
   1088000   268.95644     -1382.2134      300          
   1089000   317.12678     -1358.4851      300          
   1090000   295.49573     -1373.9574      300          
   1091000   300.74926     -1374.8043      300          
   1092000   288.12997     -1376.4745      300          
   1093000   302.31385     -1364.9563      300          
   1094000   283.37039     -1377.5099      300          
   1095000   305.1043      -1362.8463      300          
   1096000   314.33723     -1374.5936      300          
   1097000   281.77702     -1371.717       300          
   1098000   319.62912     -1350.0155      300          
   1099000   297.4888      -1373.4496      300          
   1100000   291.6148      -1380.3582      300          
   1101000   281.02867     -1376.8954      300          
   1102000   311.99356     -1361.056       300          
   1103000   263.13983     -1385.7438      300          
   1104000   332.97312     -1354.3796      300          
   1105000   284.72459     -1381.5224      300          
   1106000   313.66487     -1360.651       300          
   1107000   318.75851     -1355.1223      300          
   1108000   300.83735     -1374.1462      300          
   1109000   323.66773     -1366.7693      300          
   1110000   354.62808     -1342.4721      300          
   1111000   279.65418     -1376.3032      300          
   1112000   298.37821     -1377.6021      300          
   1113000   328.40724     -1359.1709      300          
   1114000   281.57078     -1381.1285      300          
   1115000   291.10276     -1365.1008      300          
   1116000   347.54002     -1354.4287      300          
   1117000   337.26176     -1359.1301      300          
   1118000   299.22583     -1367.1652      300          
   1119000   302.95836     -1370.7619      300          
   1120000   325.48905     -1356.9393      300          
   1121000   275.0436      -1378.3241      300          
   1122000   289.33292     -1373.2822      300          
   1123000   316.64436     -1372.0427      300          
   1124000   298.59524     -1364.7409      300          
   1125000   314.65008     -1369.8065      300          
   1126000   302.33461     -1365.2423      300          
   1127000   321.08501     -1357.136       300          
   1128000   317.42356     -1360.1109      300          
   1129000   284.12147     -1377.0221      300          
   1130000   299.90005     -1360.76        300          
   1131000   331.39418     -1368.1211      300          
   1132000   320.85908     -1364.1144      300          
   1133000   276.34232     -1363.5977      300          
   1134000   282.93892     -1382.2556      300          
   1135000   264.23254     -1384.6212      300          
   1136000   315.34797     -1357.4755      300          
   1137000   293.57155     -1378.1107      300          
   1138000   292.88974     -1356.796       300          
   1139000   304.58424     -1377.2563      300          
   1140000   349.67359     -1352.069       300          
   1141000   301.3349      -1381.152       300          
   1142000   290.14049     -1371.816       300          
   1143000   299.4678      -1372.8468      300          
   1144000   301.09841     -1371.3558      300          
   1145000   329.20377     -1365.2771      300          
   1146000   301.9055      -1370.9113      300          
   1147000   300.51055     -1367.687       300          
   1148000   343.09428     -1345.514       300          
   1149000   291.89633     -1372.4912      300          
   1150000   309.89636     -1361.1846      300          
   1151000   297.10358     -1371.6296      300          
   1152000   329.16544     -1352.385       300          
   1153000   279.40507     -1375.5076      300          
   1154000   322.30316     -1359.1043      300          
   1155000   285.71491     -1375.9757      300          
   1156000   355.54501     -1349.3357      300          
   1157000   333.80026     -1358.6461      300          
   1158000   268.80965     -1385.9999      300          
   1159000   282.59995     -1383.7979      300          
   1160000   323.82846     -1353.7761      300          
   1161000   306.52818     -1367.654       300          
   1162000   265.78878     -1380.2532      300          
   1163000   327.14111     -1365.2396      300          
   1164000   298.72772     -1372.6065      300          
   1165000   274.35142     -1375.8011      300          
   1166000   307.3401      -1360.3243      300          
   1167000   322.55739     -1358.4879      300          
   1168000   269.49545     -1385.4298      300          
   1169000   247.89008     -1386.415       300          
   1170000   284.82176     -1377.0981      300          
   1171000   319.1711      -1356.0883      300          
   1172000   298.24312     -1365.95        300          
   1173000   316.82518     -1355.0128      300          
   1174000   303.26245     -1375.7402      300          
   1175000   316.89321     -1354.754       300          
   1176000   288.12911     -1377.3778      300          
   1177000   314.85149     -1360.5397      300          
   1178000   331.3558      -1362.0431      300          
   1179000   311.1358      -1368.1615      300          
   1180000   304.39606     -1372.2567      300          
   1181000   307.80536     -1364.1338      300          
   1182000   354.53125     -1345.0541      300          
   1183000   300.91736     -1371.9157      300          
   1184000   350.82851     -1355.1606      300          
   1185000   328.81922     -1365.486       300          
   1186000   270.71275     -1377.4683      300          
   1187000   341.08141     -1347.5772      300          
   1188000   276.762       -1380.1298      300          
   1189000   298.0659      -1363.2255      300          
   1190000   238.94973     -1388.064       300          
   1191000   319.75736     -1351.0866      300          
   1192000   298.64158     -1377.7569      300          
   1193000   342.54166     -1346.3431      300          
   1194000   292.58172     -1378.1284      300          
   1195000   346.60182     -1355.7315      300          
   1196000   246.98269     -1388.7026      300          
   1197000   294.2582      -1373.0482      300          
   1198000   297.88883     -1370.511       300          
   1199000   285.13709     -1379.6339      300          
   1200000   302.14802     -1366.7706      300          
   1201000   325.79112     -1359.7695      300          
   1202000   276.06137     -1379.9775      300          
   1203000   297.76746     -1372.0268      300          
   1204000   314.99427     -1369.8458      300          
   1205000   291.31912     -1370.1551      300          
   1206000   311.57014     -1353.1279      300          
   1207000   277.93641     -1383.7053      300          
   1208000   286.50545     -1367.0727      300          
   1209000   273.5854      -1384.8636      300          
   1210000   291.41745     -1365.3872      300          
   1211000   291.25842     -1371.5928      300          
   1212000   291.54424     -1375.8371      300          
   1213000   307.03618     -1361.3391      300          
   1214000   318.536       -1359.5734      300          
   1215000   299.58234     -1371.5191      300          
   1216000   297.63892     -1370.9321      300          
   1217000   288.67102     -1377.7265      300          
   1218000   313.32158     -1354.0355      300          
   1219000   311.71352     -1368.1294      300          
   1220000   272.04951     -1380.1038      300          
   1221000   333.42043     -1354.0818      300          
   1222000   285.78429     -1375.0591      300          
   1223000   307.82788     -1358.0313      300          
   1224000   295.30813     -1381.9225      300          
   1225000   301.20691     -1363.0097      300          
   1226000   309.65123     -1361.0562      300          
   1227000   262.61823     -1383.3569      300          
   1228000   299.30026     -1379.6393      300          
   1229000   325.47775     -1355.3663      300          
   1230000   311.84245     -1355.7902      300          
   1231000   282.50444     -1379.0689      300          
   1232000   306.94377     -1364.4778      300          
   1233000   294.28514     -1370.6841      300          
   1234000   280.14042     -1375.8378      300          
   1235000   288.02417     -1367.4652      300          
   1236000   266.11133     -1378.9817      300          
   1237000   320.08413     -1352.3838      300          
   1238000   258.13588     -1381.4789      300          
   1239000   298.87711     -1363.9204      300          
   1240000   292.24782     -1376.3679      300          
   1241000   320.43048     -1360.4539      300          
   1242000   308.23358     -1369.3449      300          
   1243000   314.62089     -1354.6525      300          
   1244000   278.4835      -1377.6491      300          
   1245000   288.2789      -1372.5576      300          
   1246000   339.07063     -1356.845       300          
   1247000   323.56075     -1357.518       300          
   1248000   287.76602     -1381.2091      300          
   1249000   275.30359     -1371.3092      300          
   1250000   304.31553     -1362.2789      300          
   1251000   321.98452     -1357.3309      300          
   1252000   264.73901     -1383.5728      300          
   1253000   344.67417     -1353.0632      300          
   1254000   277.52925     -1377.9404      300          
   1255000   289.83095     -1380.3325      300          
   1256000   318.1132      -1363.7074      300          
   1257000   275.04533     -1386.8104      300          
   1258000   313.10284     -1350.5875      300          
   1259000   294.06094     -1376.1197      300          
   1260000   293.71795     -1371.9534      300          
   1261000   293.02145     -1359.0862      300          
   1262000   328.87003     -1368.0106      300          
   1263000   270.95231     -1377.8092      300          
   1264000   299.27193     -1366.2479      300          
   1265000   308.43498     -1369.0657      300          
   1266000   309.80067     -1359.3894      300          
   1267000   292.21912     -1365.2691      300          
   1268000   298.99402     -1376.4901      300          
   1269000   294.43399     -1362.5454      300          
   1270000   300.73743     -1378.9549      300          
   1271000   296.11742     -1365.3937      300          
   1272000   272.74804     -1375.4765      300          
   1273000   316.05476     -1359.892       300          
   1274000   314.14787     -1372.5982      300          
   1275000   305.49028     -1363.1712      300          
   1276000   317.50702     -1364.6015      300          
   1277000   307.83072     -1367.5494      300          
   1278000   299.3238      -1359.8961      300          
   1279000   332.48341     -1360.4808      300          
   1280000   302.72401     -1359.8134      300          
   1281000   310.76654     -1373.6885      300          
   1282000   338.81639     -1358.9183      300          
   1283000   295.10666     -1376.8166      300          
   1284000   303.20876     -1363.3281      300          
   1285000   318.18124     -1358.9308      300          
   1286000   293.53802     -1380.0736      300          
   1287000   262.98846     -1384.6014      300          
   1288000   337.84972     -1353.6984      301          
   1289000   296.47438     -1380.5981      301          
   1290000   329.84313     -1366.2552      301          
   1291000   300.53637     -1377.5888      301          
   1292000   311.68064     -1371.4104      301          
   1293000   288.17736     -1385.0178      301          
   1294000   356.16705     -1365.1927      301          
   1295000   292.69042     -1381.3878      301          
   1296000   353.00831     -1361.476       301          
   1297000   329.01807     -1367.9883      301          
   1298000   294.7644      -1385.4894      301          
   1299000   297.88534     -1374.2105      301          
   1300000   293.65355     -1381.0697      301          
   1301000   320.58654     -1364.8788      301          
   1302000   269.22771     -1395.0087      301          
   1303000   285.68372     -1380.6982      301          
   1304000   321.23125     -1372.8159      301          
   1305000   305.98752     -1369.825       301          
   1306000   326.2931      -1365.3208      301          
   1307000   304.03571     -1382.571       301          
   1308000   281.76595     -1387.594       301          
   1309000   310.69794     -1373.961       301          
   1310000   295.39621     -1387.9096      301          
   1311000   295.5098      -1375.2123      301          
   1312000   291.4792      -1378.1556      301          
   1313000   322.44217     -1371.8891      301          
   1314000   305.40767     -1379.7642      301          
   1315000   303.58715     -1370.9511      301          
   1316000   323.80539     -1371.173       301          
   1317000   311.55941     -1371.1079      301          
   1318000   275.38248     -1390.4655      301          
   1319000   279.07141     -1388.3994      301          
   1320000   316.72301     -1362.8099      301          
   1321000   332.9232      -1370.0376      301          
   1322000   355.58375     -1351.6691      301          
   1323000   343.5749      -1366.5386      301          
   1324000   322.38812     -1370.2692      301          
   1325000   322.15278     -1368.4607      301          
   1326000   301.3756      -1368.0763      301          
   1327000   320.26067     -1368.9022      301          
   1328000   301.19799     -1381.6226      301          
   1329000   302.29755     -1379.5307      301          
   1330000   270.13336     -1382.8444      301          
   1331000   296.99891     -1382.2074      301          
   1332000   319.17673     -1367.2461      301          
   1333000   275.18938     -1391.0785      301          
   1334000   291.47423     -1382.5264      301          
   1335000   296.17177     -1381.8592      301          
   1336000   283.97103     -1377.415       301          
   1337000   319.07201     -1364.967       301          
   1338000   303.799       -1379.3103      301          
   1339000   269.39583     -1379.4973      301          
   1340000   311.04838     -1372.3527      301          
   1341000   290.6899      -1382.7573      301          
   1342000   290.9737      -1386.0781      301          
   1343000   286.27806     -1382.4425      301          
   1344000   331.24212     -1359.4565      301          
   1345000   301.56953     -1381.6125      301          
   1346000   283.88388     -1387.7803      301          
   1347000   329.47627     -1366.3434      301          
   1348000   291.01338     -1381.2784      301          
   1349000   301.43833     -1379.0321      301          
   1350000   300.98848     -1378.6628      301          
   1351000   276.4602      -1389.3031      301          
   1352000   310.10326     -1372.2783      301          
   1353000   311.17839     -1371.3641      301          
   1354000   333.68984     -1367.9364      301          
   1355000   290.54668     -1381.7386      301          
   1356000   347.63391     -1363.0123      301          
   1357000   284.45512     -1381.5761      301          
   1358000   336.05225     -1358.6952      301          
   1359000   314.16389     -1376.1435      301          
   1360000   308.51579     -1381.3235      301          
   1361000   307.8442      -1383.1564      301          
   1362000   307.96634     -1368.1794      301          
   1363000   307.83741     -1377.9869      301          
   1364000   285.75604     -1383.7659      301          
   1365000   365.71074     -1355.25        301          
   1366000   332.22075     -1360.4263      301          
   1367000   297.18129     -1385.1823      301          
   1368000   276.28441     -1378.1712      301          
   1369000   330.33068     -1360.6537      301          
   1370000   302.7005      -1373.3836      301          
   1371000   267.06861     -1390.972       301          
   1372000   278.65589     -1388.1183      301          
   1373000   291.06874     -1380.1531      301          
   1374000   295.33486     -1387.8142      301          
   1375000   327.67316     -1370.9563      301          
   1376000   284.64001     -1380.3793      301          
   1377000   334.67851     -1362.0498      301          
   1378000   286.19587     -1387.6624      301          
   1379000   300.75302     -1366.8337      301          
   1380000   302.89455     -1379.3571      301          
   1381000   279.74633     -1393.7935      301          
   1382000   340.85626     -1362.0975      301          
   1383000   281.56158     -1381.0396      301          
   1384000   286.82948     -1378.1369      301          
   1385000   311.13362     -1372.5028      301          
   1386000   294.28613     -1378.1321      301          
   1387000   285.15381     -1376.5389      301          
   1388000   287.15366     -1380.2569      301          
   1389000   349.97903     -1364.7637      301          
   1390000   325.21767     -1371.1155      301          
   1391000   287.66875     -1385.0322      301          
   1392000   322.85914     -1368.5657      301          
   1393000   290.67896     -1378.1284      301          
   1394000   296.82141     -1380.0749      301          
   1395000   373.95133     -1355.2098      301          
   1396000   279.6566      -1387.0628      301          
   1397000   327.31401     -1355.9888      301          
   1398000   296.77265     -1376.5967      301          
   1399000   316.42521     -1372.4605      301          
   1400000   263.68082     -1385.0504      301          
   1401000   302.91507     -1374.7196      301          
   1402000   319.63355     -1375.567       301          
   1403000   297.85539     -1378.1539      301          
   1404000   302.13482     -1381.8466      301          
   1405000   309.52002     -1365.6719      301          
   1406000   294.86951     -1383.4209      301          
   1407000   269.37593     -1386.0984      301          
   1408000   346.57635     -1364.0223      301          
   1409000   307.6278      -1375.6084      301          
   1410000   270.98126     -1386.2238      301          
   1411000   292.27893     -1369.7504      301          
   1412000   289.26978     -1390.2441      301          
   1413000   323.46641     -1372.8566      301          
   1414000   310.16826     -1376.7913      301          
   1415000   322.52067     -1374.5408      301          
   1416000   286.52807     -1388.4443      301          
   1417000   282.39203     -1380.3083      301          
   1418000   324.06936     -1369.4222      301          
   1419000   297.59426     -1383.235       301          
   1420000   332.09805     -1366.3052      301          
   1421000   282.33316     -1382.9342      301          
   1422000   285.85348     -1386.8215      301          
   1423000   298.46661     -1370.9215      301          
   1424000   293.29921     -1376.9195      301          
   1425000   351.31782     -1355.2297      301          
   1426000   297.43372     -1386.458       301          
   1427000   275.8867      -1384.0614      301          
   1428000   331.01961     -1369.8875      301          
   1429000   308.12857     -1368.1334      301          
   1430000   324.9176      -1364.1997      301          
   1431000   264.20587     -1392.186       301          
   1432000   279.40168     -1381.2173      301          
   1433000   300.53887     -1377.4382      301          
   1434000   333.42234     -1355.8696      301          
   1435000   353.26347     -1362.5356      301          
   1436000   256.51696     -1400.0401      301          
   1437000   295.33807     -1377.902       301          
   1438000   335.44787     -1361.0621      301          
   1439000   297.99883     -1381.0613      301          
   1440000   327.9245      -1365.5657      301          
   1441000   304.38073     -1381.9189      301          
   1442000   334.58727     -1354.8468      301          
   1443000   300.93264     -1381.2416      301          
   1444000   293.39158     -1383.6336      301          
   1445000   310.62393     -1373.8014      301          
   1446000   313.11556     -1380.4241      301          
   1447000   297.60396     -1379.8874      301          
   1448000   279.80138     -1386.3212      301          
   1449000   349.24814     -1356.9541      301          
   1450000   302.04894     -1381.127       301          
   1451000   308.13091     -1372.5746      301          
   1452000   317.28321     -1369.1508      301          
   1453000   247.88624     -1396.1847      301          
   1454000   298.74708     -1369.5039      301          
   1455000   307.18311     -1381.4974      301          
   1456000   269.7694      -1390.777       301          
   1457000   308.04271     -1372.955       301          
   1458000   279.79353     -1386.9706      301          
   1459000   325.97723     -1372.4027      301          
   1460000   292.3365      -1384.852       301          
   1461000   307.57739     -1375.9513      301          
   1462000   272.01905     -1387.6414      301          
   1463000   334.88421     -1363.246       301          
   1464000   307.74286     -1374.2303      301          
   1465000   289.69522     -1372.4946      301          
   1466000   318.81026     -1373.0672      301          
   1467000   276.03163     -1388.7748      301          
   1468000   336.4839      -1360.4019      301          
   1469000   271.18633     -1390.556       301          
   1470000   307.35793     -1373.4907      301          
   1471000   312.9427      -1368.802       301          
   1472000   310.84263     -1373.572       301          
   1473000   304.68711     -1386.6551      301          
   1474000   320.06783     -1374.9252      301          
   1475000   280.47199     -1388.7182      301          
   1476000   323.64758     -1369.6739      301          
   1477000   350.33885     -1358.3683      301          
   1478000   313.4197      -1371.5645      301          
   1479000   319.65933     -1369.7432      301          
   1480000   339.06398     -1370.6855      301          
   1481000   296.22594     -1371.0902      301          
   1482000   286.01031     -1387.1357      301          
   1483000   289.63247     -1382.6075      301          
   1484000   267.47469     -1392.6679      301          
   1485000   326.52318     -1370.1361      301          
   1486000   296.60243     -1375.2216      301          
   1487000   319.63906     -1369.1435      301          
   1488000   333.8239      -1368.8304      301          
   1489000   230.82312     -1405.6433      301          
   1490000   316.71174     -1366.5048      301          
   1491000   301.38167     -1385.7984      301          
   1492000   326.23756     -1366.5393      301          
   1493000   323.96703     -1375.4495      301          
   1494000   282.00854     -1389.5585      301          
   1495000   288.18286     -1375.5588      301          
   1496000   317.61645     -1381.2023      301          
   1497000   277.75823     -1382.9746      301          
   1498000   278.67044     -1387.7735      301          
   1499000   332.312       -1371.6327      301          
   1500000   320.06188     -1361.4107      301          
   1501000   285.72857     -1386.6898      301          
   1502000   278.49702     -1389.8042      301          
   1503000   319.952       -1361.2449      301          
   1504000   303.58317     -1376.4284      301          
   1505000   297.92052     -1375.6904      301          
   1506000   335.65335     -1370.7005      301          
   1507000   322.67309     -1375.9689      301          
   1508000   303.13906     -1371.1634      301          
   1509000   341.72787     -1359.3509      301          
   1510000   319.98476     -1368.933       301          
   1511000   318.09261     -1369.5763      301          
   1512000   270.72317     -1389.2933      301          
   1513000   310.83707     -1366.0423      301          
   1514000   312.41428     -1378.2644      301          
   1515000   325.74071     -1368.706       301          
   1516000   306.60604     -1374.1774      301          
   1517000   263.35889     -1391.628       301          
   1518000   308.21254     -1369.3457      301          
   1519000   301.77351     -1381.8736      301          
   1520000   288.77767     -1377.5083      301          
   1521000   311.28087     -1371.1138      301          
   1522000   312.44713     -1370.3869      301          
   1523000   292.37244     -1382.8466      301          
   1524000   317.41022     -1370.0297      301          
   1525000   281.44678     -1383.9383      301          
   1526000   273.35233     -1382.8811      301          
   1527000   336.36823     -1370.475       301          
   1528000   264.18199     -1390.9043      301          
   1529000   304.95353     -1378.5388      301          
   1530000   328.61929     -1361.1071      301          
   1531000   329.61732     -1371.5913      301          
   1532000   256.98816     -1397.6228      301          
   1533000   324.44248     -1368.7246      301          
   1534000   322.50514     -1368.4284      301          
   1535000   304.43869     -1382.8997      301          
   1536000   278.36453     -1383.1927      301          
   1537000   376.64828     -1357.5139      301          
   1538000   259.12236     -1387.5874      301          
   1539000   301.6206      -1373.8092      301          
   1540000   275.81971     -1388.3302      301          
   1541000   319.21252     -1369.5608      301          
   1542000   290.39126     -1376.4931      301          
   1543000   321.96927     -1374.2439      301          
   1544000   317.89032     -1371.0113      301          
   1545000   330.88557     -1363.8503      301          
   1546000   274.88515     -1389.3533      301          
   1547000   281.92271     -1383.344       301          
   1548000   296.69631     -1377.4291      301          
   1549000   332.868       -1376.8511      301          
   1550000   297.60587     -1369.4606      301          
   1551000   285.38984     -1378.814       301          
   1552000   342.78228     -1366.4588      301          
   1553000   286.5891      -1376.8834      301          
   1554000   348.41106     -1357.5526      301          
   1555000   261.632       -1393.554       301          
   1556000   277.15771     -1387.2335      301          
   1557000   272.98087     -1384.4897      301          
   1558000   343.99145     -1361.4599      301          
   1559000   275.82218     -1392.642       301          
   1560000   307.84789     -1379.4536      301          
   1561000   364.95373     -1357.2061      301          
   1562000   285.93227     -1388.9325      301          
   1563000   331.04805     -1366.1857      301          
   1564000   303.74373     -1376.1547      301          
   1565000   315.80168     -1376.9504      301          
   1566000   330.59946     -1367.4931      301          
   1567000   290.62855     -1386.747       301          
   1568000   301.78474     -1374.8451      301          
   1569000   288.28372     -1387.0842      301          
   1570000   371.42247     -1348.3847      301          
   1571000   307.63395     -1383.8436      301          
   1572000   287.27333     -1378.9725      301          
   1573000   315.88292     -1374.4888      301          
   1574000   306.70685     -1388.4367      301          
   1575000   335.7184      -1365.8213      301          
   1576000   279.96688     -1384.1157      301          
   1577000   321.01288     -1371.9207      301          
   1578000   298.66608     -1377.2363      301          
   1579000   336.9553      -1367.4734      301          
   1580000   279.51178     -1392.1254      301          
   1581000   263.63184     -1386.0955      301          
   1582000   342.50377     -1363.8316      301          
   1583000   302.54955     -1382.0035      301          
   1584000   299.81226     -1384.5793      301          
   1585000   316.98606     -1371.5927      301          
   1586000   307.78595     -1384.5675      301          
   1587000   312.5257      -1368.5713      301          
   1588000   264.85201     -1404.0464      301          
   1589000   324.30545     -1365.9396      301          
   1590000   279.67357     -1388.4622      301          
   1591000   270.98343     -1384.1892      301          
   1592000   274.89381     -1383.0754      301          
   1593000   309.31784     -1371.394       301          
   1594000   275.26874     -1396.4113      301          
   1595000   304.64884     -1381.0941      301          
   1596000   314.63775     -1376.0737      301          
   1597000   306.51943     -1380.6394      301          
   1598000   278.28805     -1387.6049      301          
   1599000   323.66216     -1375.7256      301          
   1600000   308.39858     -1385.3952      301          
   1601000   307.70683     -1371.787       301          
   1602000   259.34929     -1398.794       301          
   1603000   322.21432     -1360.6805      301          
   1604000   286.22953     -1385.3201      301          
   1605000   308.84167     -1368.4578      301          
   1606000   299.13475     -1374.5455      301          
   1607000   312.16492     -1364.3245      301          
   1608000   294.67679     -1379.2303      301          
   1609000   357.90313     -1357.5608      301          
   1610000   279.28589     -1385.724       301          
   1611000   331.72775     -1361.0181      301          
   1612000   298.61604     -1377.9422      301          
   1613000   309.06353     -1365.9567      301          
   1614000   283.61583     -1384.3782      301          
   1615000   330.17847     -1368.8452      301          
   1616000   270.78982     -1394.5829      301          
   1617000   257.54955     -1387.5664      301          
   1618000   315.90057     -1370.0504      301          
   1619000   293.82481     -1385.108       301          
   1620000   314.01239     -1377.9837      301          
   1621000   266.70037     -1377.834       301          
   1622000   316.57636     -1372.8776      301          
   1623000   301.2189      -1382.9904      301          
   1624000   279.9338      -1380.1282      301          
   1625000   320.16534     -1365.3756      301          
   1626000   333.78561     -1367.5534      301          
   1627000   297.72294     -1376.3149      301          
   1628000   310.49277     -1378.8781      301          
   1629000   307.67402     -1371.8739      301          
   1630000   335.14439     -1363.4919      301          
   1631000   256.11788     -1399.7384      301          
   1632000   313.94948     -1365.82        301          
   1633000   336.52334     -1361.0758      301          
   1634000   308.90414     -1377.8976      301          
   1635000   298.09158     -1377.5722      301          
   1636000   272.09523     -1392.3653      301          
   1637000   293.99211     -1374.3425      301          
   1638000   299.99292     -1383.7151      301          
   1639000   297.6172      -1378.3583      301          
   1640000   355.7744      -1361.1919      301          
   1641000   272.68172     -1388.1718      301          
   1642000   312.20399     -1365.2483      301          
   1643000   291.18295     -1383.3771      301          
   1644000   323.481       -1364.1541      301          
   1645000   317.46573     -1383.7958      301          
   1646000   310.02502     -1372.6343      301          
   1647000   334.96488     -1369.5873      301          
   1648000   271.89395     -1388.5542      301          
   1649000   303.29846     -1378.3816      301          
   1650000   282.04895     -1390.0857      301          
   1651000   359.59994     -1358.8832      301          
   1652000   361.56795     -1354.5226      301          
   1653000   303.36382     -1376.7112      301          
   1654000   314.18379     -1379.279       301          
   1655000   315.10252     -1364.8185      301          
   1656000   326.9351      -1369.0278      301          
   1657000   306.21054     -1371.4406      301          
   1658000   285.20378     -1384.5704      301          
   1659000   276.49507     -1389.6241      301          
   1660000   331.89529     -1361.4769      301          
   1661000   299.681       -1381.3727      301          
   1662000   307.04157     -1373.2577      301          
   1663000   337.65642     -1364.9081      301          
   1664000   294.05335     -1377.3653      301          
   1665000   275.72037     -1381.6814      301          
   1666000   297.23998     -1374.98        301          
   1667000   282.95734     -1383.8397      301          
   1668000   295.82602     -1386.5645      301          
   1669000   285.80829     -1375.0939      301          
   1670000   271.67181     -1392.1296      301          
   1671000   347.48064     -1356.6611      301          
   1672000   294.27862     -1378.8778      301          
   1673000   280.6953      -1385.4775      301          
   1674000   296.70897     -1381.8763      301          
   1675000   372.58646     -1349.3757      301          
   1676000   296.61416     -1372.1802      301          
   1677000   329.69881     -1375.6164      301          
   1678000   276.86288     -1380.2669      301          
   1679000   302.70376     -1371.8653      301          
   1680000   305.50691     -1384.8104      301          
   1681000   277.18791     -1379.447       301          
   1682000   307.36486     -1374.5199      301          
   1683000   280.82214     -1379.5293      301          
   1684000   330.4608      -1370.5178      301          
   1685000   294.93587     -1379.2594      301          
   1686000   305.80546     -1381.403       301          
   1687000   282.07009     -1383.3682      301          
   1688000   335.41388     -1361.556       301          
   1689000   295.79882     -1380.6369      301          
   1690000   276.92595     -1388.3333      301          
   1691000   309.1718      -1371.3782      301          
   1692000   285.98961     -1375.8827      301          
   1693000   294.21417     -1389.8453      301          
   1694000   297.01822     -1379.4372      301          
   1695000   262.38768     -1387.294       301          
   1696000   335.8066      -1366.3133      301          
   1697000   313.17408     -1373.7072      301          
   1698000   313.3098      -1381.8584      301          
   1699000   273.09345     -1383.5861      301          
   1700000   273.64658     -1388.7885      301          
   1701000   359.64713     -1355.8249      301          
   1702000   352.89366     -1353.2812      301          
   1703000   275.31195     -1391.3483      301          
   1704000   271.49925     -1384.5229      301          
   1705000   297.45206     -1374.5402      301          
   1706000   302.7182      -1366.9657      301          
   1707000   293.20989     -1387.3844      301          
   1708000   296.51226     -1378.4812      301          
   1709000   297.57586     -1385.0796      301          
   1710000   284.74251     -1384.5585      301          
   1711000   316.72299     -1365.0362      301          
   1712000   312.02121     -1377.4068      301          
   1713000   294.40141     -1376.2476      301          
   1714000   332.21746     -1356.2666      301          
   1715000   286.09165     -1392.3781      301          
   1716000   328.42289     -1367.6773      301          
   1717000   286.38772     -1384.9285      301          
   1718000   320.83014     -1364.2912      301          
   1719000   292.7505      -1374.2359      301          
   1720000   291.04954     -1384.1764      301          
   1721000   277.29495     -1389.6974      301          
   1722000   308.08319     -1370.5249      301          
   1723000   282.94279     -1386.209       301          
   1724000   283.19027     -1386.2789      301          
   1725000   283.39754     -1383.7184      301          
   1726000   264.92083     -1390.1154      301          
   1727000   307.75367     -1380.4912      301          
   1728000   279.74834     -1382.9458      301          
   1729000   332.43114     -1368.0394      301          
   1730000   348.00837     -1352.9385      301          
   1731000   297.04092     -1386.1746      301          
   1732000   298.47105     -1379.3342      301          
   1733000   300.39639     -1384.8244      301          
   1734000   334.88198     -1368.0258      301          
   1735000   300.85894     -1371.7797      301          
   1736000   300.35848     -1379.1666      301          
   1737000   328.15058     -1368.6231      301          
   1738000   274.66357     -1397.4375      301          
   1739000   348.05909     -1363.2865      301          
   1740000   312.35049     -1373.6166      301          
   1741000   312.01025     -1373.9076      301          
   1742000   268.14327     -1383.9302      301          
   1743000   304.53259     -1369.7831      301          
   1744000   288.79629     -1386.5271      301          
   1745000   314.90877     -1369.993       301          
   1746000   337.74409     -1361.3741      301          
   1747000   279.67606     -1386.2268      301          
   1748000   275.61205     -1373.8944      301          
   1749000   342.73012     -1361.143       301          
   1750000   335.67732     -1359.7839      301          
   1751000   312.53018     -1374.4243      301          
   1752000   323.05138     -1360.629       301          
   1753000   306.39614     -1384.4132      301          
   1754000   320.2404      -1362.6642      301          
   1755000   303.37235     -1381.2987      301          
   1756000   295.70175     -1384.7218      301          
   1757000   264.39727     -1388.6894      301          
   1758000   273.31652     -1391.6523      301          
   1759000   309.29089     -1373.8107      301          
   1760000   326.98243     -1378.8159      301          
   1761000   262.13136     -1388.0491      301          
   1762000   330.5927      -1355.9667      301          
   1763000   306.21244     -1382.9329      301          
   1764000   305.99971     -1370.0776      301          
   1765000   307.38245     -1377.8707      301          
   1766000   307.15384     -1382.6898      301          
   1767000   287.54821     -1376.3008      301          
   1768000   360.21966     -1363.5622      301          
   1769000   285.01443     -1384.8817      301          
   1770000   326.04028     -1367.0918      301          
   1771000   309.3543      -1381.7677      301          
   1772000   296.10421     -1380.0214      301          
   1773000   294.67655     -1385.578       301          
   1774000   319.47696     -1374.3548      301          
   1775000   298.02179     -1377.8309      301          
   1776000   327.01541     -1362.8044      301          
   1777000   320.32392     -1378.0353      301          
   1778000   273.11679     -1386.1738      301          
   1779000   300.40149     -1371.5166      301          
   1780000   289.63329     -1380.5968      301          
   1781000   328.26022     -1369.9923      301          
   1782000   340.5601      -1362.8393      301          
   1783000   295.64991     -1384.8372      301          
   1784000   322.82137     -1369.1974      301          
   1785000   294.87686     -1385.8883      301          
   1786000   298.73403     -1387.6634      301          
   1787000   323.48697     -1361.498       301          
   1788000   309.98436     -1377.8426      301          
   1789000   264.84438     -1391.362       301          
   1790000   283.98158     -1369.6844      301          
   1791000   311.25964     -1370.3281      301          
   1792000   290.45811     -1392.4196      301          
   1793000   327.28507     -1362.3205      301          
   1794000   289.02832     -1384.1574      301          
   1795000   325.39564     -1369.0559      301          
   1796000   277.38484     -1395.259       301          
   1797000   306.26335     -1370.3662      301          
   1798000   348.39168     -1363.6152      301          
   1799000   272.80675     -1392.1702      301          
   1800000   304.67267     -1369.4483      301          
   1801000   312.55051     -1373.3375      301          
   1802000   306.82713     -1371.4482      301          
   1803000   279.36608     -1387.597       301          
   1804000   330.19763     -1365.6037      301          
   1805000   339.82581     -1360.5476      301          
   1806000   309.93656     -1375.8429      301          
   1807000   268.75743     -1382.8154      301          
   1808000   322.36889     -1364.1388      301          
   1809000   308.33776     -1380.8875      301          
   1810000   296.99274     -1391.163       301          
   1811000   299.38529     -1376.4077      301          
   1812000   350.38948     -1361.8571      301          
   1813000   284.90181     -1385.2554      301          
   1814000   323.10877     -1366.0241      301          
   1815000   304.19316     -1375.34        301          
   1816000   351.06204     -1358.1105      301          
   1817000   293.48727     -1381.9637      301          
   1818000   329.69031     -1365.331       301          
   1819000   303.57581     -1374.3433      301          
   1820000   292.99642     -1385.6327      301          
   1821000   293.89974     -1374.5585      301          
   1822000   307.50957     -1381.7839      301          
   1823000   340.44996     -1370.8527      301          
   1824000   273.29566     -1392.6084      301          
   1825000   365.52696     -1349.3583      301          
   1826000   293.22925     -1381.851       301          
   1827000   304.73244     -1372.0732      301          
   1828000   314.10724     -1373.5512      301          
   1829000   280.44306     -1388.6647      301          
   1830000   326.34742     -1360.5022      301          
   1831000   261.66576     -1400.1391      301          
   1832000   324.20662     -1363.0723      301          
   1833000   305.23227     -1377.2508      301          
   1834000   343.23503     -1363.9549      301          
   1835000   298.17607     -1379.5848      301          
   1836000   296.94393     -1366.1186      301          
   1837000   313.7064      -1383.786       301          
   1838000   315.56958     -1370.7091      301          
   1839000   278.05354     -1388.933       301          
   1840000   284.87214     -1379.389       301          
   1841000   339.54841     -1366.2588      301          
   1842000   306.56128     -1379.2325      301          
   1843000   324.28182     -1364.6839      301          
   1844000   332.42024     -1363.158       301          
   1845000   314.59348     -1371.0505      301          
   1846000   311.93819     -1373.4692      301          
   1847000   274.81204     -1390.9785      301          
   1848000   321.17612     -1372.9736      301          
   1849000   320.28329     -1377.6007      301          
   1850000   280.46824     -1387.0376      301          
   1851000   324.85367     -1361.9566      301          
   1852000   276.50373     -1390.3381      301          
   1853000   332.89292     -1369.2463      301          
   1854000   298.7121      -1382.1227      301          
   1855000   294.67218     -1373.8604      301          
   1856000   292.15255     -1388.813       301          
   1857000   282.1577      -1378.9165      301          
   1858000   310.23866     -1383.945       301          
   1859000   331.73502     -1365.1154      301          
   1860000   284.52826     -1386.2753      301          
   1861000   314.90038     -1368.6073      301          
   1862000   284.17618     -1390.8553      301          
   1863000   308.87656     -1372.3923      301          
   1864000   331.56639     -1368.6541      301          
   1865000   298.82842     -1368.5491      301          
   1866000   300.51209     -1385.1418      301          
   1867000   281.20642     -1389.1767      301          
   1868000   276.88964     -1380.6961      301          
   1869000   336.85452     -1363.8748      301          
   1870000   285.48607     -1386.1284      301          
   1871000   348.22832     -1358.6676      301          
   1872000   322.76418     -1364.6975      301          
   1873000   299.98487     -1378.871       301          
   1874000   309.31322     -1380.7883      301          
   1875000   262.30452     -1393.426       301          
   1876000   307.80672     -1376.0366      301          
   1877000   311.77192     -1368.4821      301          
   1878000   287.97375     -1383.0121      301          
   1879000   307.94211     -1374.0498      301          
   1880000   304.58283     -1371.0836      301          
   1881000   315.60364     -1375.6633      301          
   1882000   294.00262     -1381.1827      301          
   1883000   347.68896     -1366.0561      301          
   1884000   267.54318     -1395.0348      301          
   1885000   303.25208     -1369.2234      301          
   1886000   299.75698     -1383.15        301          
   1887000   289.07682     -1381.0088      301          
   1888000   301.68893     -1375.1348      301          
   1889000   313.97899     -1364.8003      301          
   1890000   306.90471     -1370.7268      301          
   1891000   302.47222     -1379.3882      301          
   1892000   294.83989     -1379.5614      301          
   1893000   326.96054     -1369.052       301          
   1894000   300.46515     -1383.0543      301          
   1895000   311.0168      -1378.7237      301          
   1896000   284.18257     -1381.2348      301          
   1897000   330.19246     -1368.9511      301          
   1898000   274.66333     -1383.5069      301          
   1899000   268.97412     -1393.3628      301          
   1900000   297.63854     -1372.4633      301          
   1901000   291.81641     -1379.8419      301          
   1902000   289.39023     -1374.5539      301          
   1903000   285.88491     -1385.9565      301          
   1904000   316.98833     -1371.2478      301          
   1905000   300.80182     -1378.3748      301          
   1906000   322.21973     -1369.6835      301          
   1907000   293.7733      -1386.9303      301          
   1908000   333.90428     -1361.7309      301          
   1909000   278.05351     -1379.9143      301          
   1910000   342.17701     -1363.8081      301          
   1911000   331.61218     -1368.8007      301          
   1912000   290.36541     -1384.5046      301          
   1913000   304.32747     -1371.7536      301          
   1914000   298.09642     -1379.539       301          
   1915000   340.71264     -1358.1158      301          
   1916000   287.9246      -1385.2841      301          
   1917000   343.06306     -1361.0295      301          
   1918000   326.56676     -1377.4223      301          
   1919000   305.264       -1372.4451      301          
   1920000   290.95412     -1385.7455      301          
   1921000   291.6329      -1378.4143      301          
   1922000   311.11463     -1374.21        301          
   1923000   300.61204     -1379.4247      301          
   1924000   316.25964     -1376.4164      301          
   1925000   284.76742     -1381.7725      301          
   1926000   327.40463     -1368.2468      301          
   1927000   303.86984     -1382.6318      301          
   1928000   265.37443     -1390.4595      301          
   1929000   290.51353     -1378.7486      301          
   1930000   325.04898     -1365.4026      301          
   1931000   351.88552     -1352.8632      301          
   1932000   284.97058     -1387.2136      301          
   1933000   315.04584     -1374.9152      301          
   1934000   308.52963     -1370.4176      301          
   1935000   289.57201     -1380.3524      301          
   1936000   339.5681      -1345.1548      301          
   1937000   291.76189     -1382.3172      301          
   1938000   308.11043     -1380.4213      301          
   1939000   277.03714     -1386.2059      301          
   1940000   366.69133     -1343.4398      301          
   1941000   286.87295     -1384.4548      301          
   1942000   339.56679     -1357.8654      301          
   1943000   319.2277      -1362.3067      301          
   1944000   303.8349      -1384.4553      301          
   1945000   294.85861     -1375.0535      301          
   1946000   322.86289     -1371.4294      301          
   1947000   293.96417     -1378.9577      301          
   1948000   309.71696     -1369.5129      301          
   1949000   315.62039     -1372.1965      301          
   1950000   311.15531     -1371.9168      301          
   1951000   297.60706     -1366.315       301          
   1952000   292.36686     -1383.823       301          
   1953000   317.44398     -1364.9843      301          
   1954000   278.36884     -1386.0088      301          
   1955000   325.48108     -1356.6663      301          
   1956000   303.82903     -1377.3596      301          
   1957000   289.2482      -1381.3618      301          
   1958000   297.03124     -1379.629       301          
   1959000   315.7862      -1377.364       301          
   1960000   278.20031     -1392.1182      301          
   1961000   294.7464      -1383.9976      301          
   1962000   296.5612      -1386.1062      301          
   1963000   294.99546     -1384.1823      301          
   1964000   291.30452     -1385.2826      301          
   1965000   317.74918     -1366.1223      301          
   1966000   335.98797     -1364.9995      301          
   1967000   319.42236     -1366.87        301          
   1968000   280.10158     -1389.2581      301          
   1969000   368.79045     -1354.23        301          
   1970000   300.85997     -1377.6846      301          
   1971000   290.55892     -1381.1442      301          
   1972000   308.89179     -1383.5989      301          
   1973000   276.69523     -1390.3281      301          
   1974000   325.95237     -1363.6921      301          
   1975000   330.29832     -1367.2546      301          
   1976000   292.63141     -1376.6321      301          
   1977000   296.19901     -1381.8333      301          
   1978000   293.54849     -1377.1971      301          
   1979000   303.69985     -1369.548       301          
   1980000   338.14722     -1366.8617      301          
   1981000   308.09344     -1372.5589      301          
   1982000   279.67432     -1391.1311      301          
   1983000   297.48022     -1375.0437      301          
   1984000   350.08284     -1363.45        301          
   1985000   320.12641     -1370.09        301          
   1986000   257.20748     -1390.5784      301          
   1987000   326.08429     -1363.893       301          
   1988000   333.24203     -1359.3917      301          
   1989000   300.52654     -1376.7381      301          
   1990000   323.77697     -1376.4101      301          
   1991000   307.46405     -1379.7999      301          
   1992000   330.04886     -1364.3204      301          
   1993000   318.0163      -1372.3497      301          
   1994000   281.92546     -1376.7185      301          
   1995000   343.10152     -1364.7057      301          
   1996000   279.04966     -1381.639       301          
   1997000   319.20378     -1362.0638      301          
   1998000   298.85421     -1381.3064      301          
   1999000   313.48591     -1370.2204      301          
   2000000   340.98802     -1360.6669      301          
   2001000   293.4508      -1380.4855      301          
   2002000   316.94366     -1367.4515      301          
   2003000   315.91856     -1375.2342      301          
   2004000   284.28836     -1387.8042      301          
   2005000   321.4163      -1360.9351      301          
   2006000   280.39772     -1386.793       301          
   2007000   350.24434     -1357.7595      301          
   2008000   274.18892     -1395.6063      301          
   2009000   313.48193     -1361.6764      301          
   2010000   317.46749     -1380.1884      301          
   2011000   283.94017     -1387.6491      301          
   2012000   320.31512     -1377.9173      301          
   2013000   296.04603     -1378.4732      301          
   2014000   287.61337     -1384.196       301          
   2015000   333.61677     -1366.0476      301          
   2016000   262.07286     -1395.0257      301          
   2017000   279.07893     -1384.0167      301          
   2018000   310.52174     -1367.0188      301          
   2019000   300.78629     -1375.7023      301          
   2020000   314.46218     -1367.9833      301          
   2021000   335.60755     -1364.8474      301          
   2022000   325.94645     -1369.0834      301          
   2023000   294.99543     -1386.4391      301          
   2024000   322.20913     -1359.292       301          
   2025000   273.97177     -1392.3304      301          
   2026000   290.16823     -1373.1404      301          
   2027000   333.35754     -1373.3629      301          
   2028000   277.95329     -1389.8498      301          
   2029000   288.01337     -1379.7052      301          
   2030000   303.86384     -1371.9329      301          
   2031000   328.9135      -1364.604       301          
   2032000   272.87208     -1384.2125      301          
   2033000   317.20938     -1371.8025      301          
   2034000   298.70857     -1381.6716      301          
   2035000   331.64618     -1363.5611      301          
   2036000   320.72775     -1374.9084      301          
   2037000   328.77924     -1362.9451      301          
   2038000   289.27576     -1378.9332      301          
   2039000   292.55873     -1375.0345      301          
   2040000   334.54275     -1361.0978      301          
   2041000   269.19348     -1385.0504      301          
   2042000   303.70216     -1380.5535      301          
   2043000   329.71834     -1356.0852      301          
   2044000   302.42918     -1379.9327      301          
   2045000   291.37105     -1385.3395      301          
   2046000   304.76214     -1384.9068      301          
   2047000   297.82146     -1380.7362      301          
   2048000   302.83975     -1384.1183      301          
   2049000   298.993       -1374.3851      301          
   2050000   310.26205     -1375.6228      301          
   2051000   298.29862     -1372.6856      301          
   2052000   286.86578     -1387.7228      301          
   2053000   293.18464     -1375.6666      301          
   2054000   277.4875      -1385.8197      301          
   2055000   335.67055     -1369.3407      301          
   2056000   276.35827     -1384.7323      301          
   2057000   339.48895     -1359.1161      301          
   2058000   299.25372     -1384.2608      301          
   2059000   321.84443     -1370.5484      301          
   2060000   273.97261     -1391.3744      301          
   2061000   311.23511     -1374.3202      301          
   2062000   308.11895     -1382.2433      301          
   2063000   322.50103     -1370.6716      301          
   2064000   299.94682     -1383.7114      301          
   2065000   286.24898     -1372.6932      301          
   2066000   340.47621     -1367.0832      301          
   2067000   294.5033      -1372.3885      301          
   2068000   316.61624     -1378.2899      301          
   2069000   284.38822     -1384.9182      301          
   2070000   319.63135     -1374.6283      301          
   2071000   316.53938     -1370.0854      301          
   2072000   280.92047     -1392.2881      301          
   2073000   327.7972      -1373.9018      301          
   2074000   295.44787     -1375.3835      301          
   2075000   302.70985     -1378.4595      301          
   2076000   320.89014     -1364.3751      301          
   2077000   356.07466     -1365.868       301          
   2078000   318.96146     -1369.1874      301          
   2079000   264.91775     -1395.1618      301          
   2080000   317.80074     -1364.4485      301          
   2081000   277.13561     -1391.2405      301          
   2082000   290.85261     -1381.8072      301          
   2083000   312.53521     -1370.3847      301          
   2084000   314.76285     -1378.512       301          
   2085000   261.8279      -1387.2892      301          
   2086000   327.63969     -1367.6515      301          
   2087000   317.84994     -1378.0353      301          
   2088000   296.45468     -1372.2337      301          
   2089000   313.5785      -1378.5573      301          
   2090000   290.67695     -1383.5817      301          
   2091000   341.98742     -1354.0394      301          
   2092000   267.91599     -1387.8274      301          
   2093000   339.77842     -1359.3817      301          
   2094000   305.5854      -1385.6014      301          
   2095000   263.79175     -1394.3356      301          
   2096000   264.23708     -1389.1557      301          
   2097000   326.55874     -1377.9144      301          
   2098000   306.42453     -1365.4357      301          
   2099000   272.67812     -1394.243       301          
   2100000   322.13265     -1367.6599      301          
   2101000   303.5849      -1380.5954      301          
   2102000   326.92863     -1359.9153      301          
   2103000   264.04152     -1397.8809      301          
   2104000   296.53113     -1377.5598      301          
   2105000   264.80729     -1395.9271      301          
   2106000   305.75733     -1369.7334      301          
   2107000   309.99603     -1376.8977      301          
   2108000   325.66587     -1371.6492      301          
   2109000   266.46753     -1395.2283      301          
   2110000   310.83775     -1365.5994      301          
   2111000   301.78485     -1385.8258      301          
   2112000   296.16291     -1380.1747      301          
   2113000   268.8935      -1386.2718      301          
   2114000   284.75387     -1376.5189      301          
   2115000   262.95916     -1397.1483      301          
   2116000   306.53822     -1373.013       301          
   2117000   315.8406      -1365.853       301          
   2118000   305.67565     -1378.2641      301          
   2119000   279.45026     -1386.8366      301          
   2120000   345.88637     -1360.5275      301          
   2121000   295.9606      -1384.2899      301          
   2122000   289.49001     -1379.7922      301          
   2123000   314.3684      -1371.7519      301          
   2124000   341.74157     -1366.8241      301          
   2125000   293.31645     -1382.8401      301          
   2126000   357.82594     -1368.3663      302          
   2127000   311.93114     -1374.4688      302          
   2128000   301.57837     -1388.9766      302          
   2129000   317.77471     -1381.0425      302          
   2130000   287.16093     -1393.4208      302          
   2131000   312.72998     -1383.9392      302          
   2132000   273.47757     -1391.1719      302          
   2133000   298.85299     -1389.9116      302          
   2134000   295.96578     -1382.7147      302          
   2135000   309.51047     -1379.543       302          
   2136000   267.09061     -1395.5453      302          
   2137000   337.45794     -1367.85        302          
   2138000   298.40585     -1389.4607      302          
   2139000   319.54616     -1380.3664      302          
   2140000   357.0849      -1364.4032      302          
   2141000   277.41826     -1392.9082      302          
   2142000   343.64776     -1358.9472      302          
   2143000   316.60883     -1378.1218      302          
   2144000   281.09839     -1398.4834      302          
   2145000   304.33579     -1388.8691      302          
   2146000   269.81967     -1391.9467      302          
   2147000   295.62968     -1397.5277      302          
   2148000   325.70281     -1370.1236      302          
   2149000   320.83928     -1378.9041      302          
   2150000   314.52984     -1382.854       302          
   2151000   292.51797     -1392.9007      302          
   2152000   282.28376     -1394.9238      302          
   2153000   312.56314     -1383.5876      302          
   2154000   321.71458     -1375.1169      302          
   2155000   306.05334     -1384.6179      302          
   2156000   290.93183     -1399.8689      302          
   2157000   286.25151     -1390.3965      302          
   2158000   306.55602     -1381.7925      302          
   2159000   318.76129     -1388.6508      302          
   2160000   290.66213     -1391.7085      302          
   2161000   313.33424     -1380.2682      302          
   2162000   316.13161     -1386.2385      302          
   2163000   296.5391      -1391.117       302          
   2164000   308.03812     -1376.7553      302          
   2165000   301.03663     -1392.6668      302          
   2166000   312.31165     -1382.4245      302          
   2167000   306.02732     -1383.8553      302          
   2168000   314.42773     -1377.3729      302          
   2169000   326.05545     -1377.7776      302          
   2170000   299.76235     -1392.2193      302          
   2171000   305.5793      -1380.7733      302          
   2172000   280.41673     -1394.3111      302          
   2173000   310.2612      -1377.9307      302          
   2174000   286.55735     -1398.6382      302          
   2175000   292.15886     -1389.0011      302          
   2176000   301.9621      -1378.7442      302          
   2177000   330.76975     -1378.2745      302          
   2178000   275.6931      -1396.9673      302          
   2179000   283.581       -1398.4902      302          
   2180000   297.62854     -1385.3865      302          
   2181000   348.06074     -1369.9353      302          
   2182000   275.38578     -1402.25        302          
   2183000   332.28907     -1381.0378      302          
   2184000   294.68037     -1390.7369      302          
   2185000   279.96624     -1400.7397      302          
   2186000   354.76105     -1373.8218      302          
   2187000   302.96432     -1386.8382      302          
   2188000   275.26745     -1395.4483      302          
   2189000   264.35922     -1402.1474      302          
   2190000   291.04635     -1384.6694      302          
   2191000   321.97947     -1368.4414      302          
   2192000   312.73006     -1382.0628      302          
   2193000   322.53529     -1374.4488      302          
   2194000   293.26658     -1398.2618      302          
   2195000   278.23176     -1390.7587      302          
   2196000   305.51579     -1382.6737      302          
   2197000   354.22621     -1363.0393      302          
   2198000   303.00919     -1391.0799      302          
   2199000   270.84489     -1392.2897      302          
   2200000   332.84413     -1369.6842      302          
   2201000   263.62443     -1400.5659      302          
   2202000   314.39139     -1377.8546      302          
   2203000   321.95417     -1375.7547      302          
   2204000   276.66509     -1395.9096      302          
   2205000   303.47191     -1381.6753      302          
   2206000   289.52778     -1390.3672      302          
   2207000   306.67314     -1383.6156      302          
   2208000   331.86847     -1381.087       302          
   2209000   293.31043     -1390.1298      302          
   2210000   331.3191      -1367.7937      302          
   2211000   304.18063     -1378.0172      302          
   2212000   287.02729     -1394.9517      302          
   2213000   350.6162      -1364.352       302          
   2214000   314.34909     -1389.4158      302          
   2215000   266.31332     -1400.0605      302          
   2216000   365.82145     -1363.4648      302          
   2217000   313.31023     -1385.0806      302          
   2218000   297.4058      -1388.4309      302          
   2219000   348.2918      -1369.9798      302          
   2220000   273.88549     -1394.1186      302          
   2221000   318.27408     -1382.4633      302          
   2222000   284.39885     -1393.4817      302          
   2223000   295.74047     -1390.4973      302          
   2224000   299.89138     -1377.9597      302          
   2225000   344.00222     -1371.0399      302          
   2226000   295.94765     -1387.1642      302          
   2227000   281.38637     -1396.4962      302          
   2228000   315.86537     -1373.3752      302          
   2229000   277.07737     -1394.2768      302          
   2230000   298.33914     -1383.867       302          
   2231000   268.96913     -1403.1729      302          
   2232000   286.83152     -1390.3019      302          
   2233000   311.74289     -1376.7907      302          
   2234000   284.57429     -1399.7094      302          
   2235000   304.83615     -1376.2203      302          
   2236000   277.17194     -1390.0747      302          
   2237000   270.62703     -1398.7296      302          
   2238000   305.09132     -1382.5889      302          
   2239000   301.17214     -1394.036       302          
   2240000   348.83585     -1364.9574      302          
   2241000   340.60686     -1367.6151      302          
   2242000   302.27353     -1385.8853      302          
   2243000   318.02221     -1379.9836      302          
   2244000   257.52144     -1405.5138      302          
   2245000   342.00495     -1369.1541      302          
   2246000   303.66871     -1389.0863      302          
   2247000   318.67401     -1372.5049      302          
   2248000   356.13991     -1373.5673      302          
   2249000   320.32759     -1382.1918      302          
   2250000   277.09966     -1394.2677      302          
   2251000   333.24027     -1371.4255      302          
   2252000   296.95668     -1387.3323      302          
   2253000   290.90677     -1385.5918      302          
   2254000   342.11737     -1377.5994      302          
   2255000   280.57604     -1395.1516      302          
   2256000   332.75084     -1374.6169      302          
   2257000   272.12261     -1398.5311      302          
   2258000   289.25402     -1388.5119      302          
   2259000   324.26788     -1365.5819      302          
   2260000   316.53278     -1391.0785      302          
   2261000   311.30978     -1374.0941      302          
   2262000   317.64089     -1377.008       302          
   2263000   295.10427     -1390.2337      302          
   2264000   322.98582     -1375.1548      302          
   2265000   290.94372     -1398.6939      302          
   2266000   301.2807      -1375.3756      302          
   2267000   309.50075     -1395.967       302          
   2268000   282.85924     -1388.6961      302          
   2269000   318.84698     -1379.577       302          
   2270000   289.90999     -1393.4582      302          
   2271000   315.26283     -1378.9451      302          
   2272000   312.00027     -1383.5175      302          
   2273000   253.7694      -1400.7643      302          
   2274000   307.58177     -1377.6016      302          
   2275000   373.11313     -1365.9922      302          
   2276000   282.66578     -1397.207       302          
   2277000   304.48653     -1379.7443      302          
   2278000   273.97375     -1389.8657      302          
   2279000   340.07276     -1368.2673      302          
   2280000   313.55895     -1376.6685      302          
   2281000   280.69522     -1391.6685      302          
   2282000   315.43026     -1374.1605      302          
   2283000   299.50172     -1388.2753      302          
   2284000   275.00933     -1399.6144      302          
   2285000   312.13871     -1373.8449      302          
   2286000   291.73024     -1391.7263      302          
   2287000   297.46422     -1389.9216      302          
   2288000   312.18364     -1375.9088      302          
   2289000   326.14074     -1381.1196      302          
   2290000   287.27144     -1391.6962      302          
   2291000   322.92558     -1370.1148      302          
   2292000   282.31845     -1399.8117      302          
   2293000   329.54375     -1368.7227      302          
   2294000   265.2864      -1403.1423      302          
   2295000   333.26851     -1369.0915      302          
   2296000   327.2639      -1378.7259      302          
   2297000   286.94827     -1393.7119      302          
   2298000   325.5037      -1365.9299      302          
   2299000   346.85348     -1378.0565      302          
   2300000   320.92063     -1372.3685      302          
   2301000   338.32993     -1371.1968      302          
   2302000   304.42424     -1388.6115      302          
   2303000   326.95308     -1367.2187      302          
   2304000   316.28289     -1377.5383      302          
   2305000   276.0075      -1390.2457      302          
   2306000   292.98849     -1384.0016      302          
   2307000   347.87832     -1374.94        302          
   2308000   272.9163      -1394.3371      302          
   2309000   315.22956     -1384.929       302          
   2310000   281.93126     -1389.1679      302          
   2311000   252.15392     -1401.7295      302          
   2312000   296.37344     -1381.3197      302          
   2313000   293.47083     -1387.8926      302          
   2314000   313.52508     -1380.3087      302          
   2315000   309.5729      -1392.0797      302          
   2316000   331.31013     -1372.7271      302          
   2317000   290.29002     -1394.6959      302          
   2318000   324.39376     -1377.7728      302          
   2319000   295.51268     -1395.1887      302          
   2320000   302.6467      -1382.7295      302          
   2321000   272.06394     -1400.7929      302          
   2322000   301.32864     -1381.328       302          
   2323000   304.99479     -1392.5877      302          
   2324000   282.09505     -1390.6257      302          
   2325000   317.74843     -1374.9988      302          
   2326000   285.40021     -1399.2452      302          
   2327000   305.86996     -1375.5908      302          
   2328000   296.61511     -1396.424       302          
   2329000   300.03446     -1391.5454      302          
   2330000   317.59368     -1383.1782      302          
   2331000   322.78716     -1372.1353      302          
   2332000   332.06232     -1380.6172      302          
   2333000   293.69083     -1381.1336      302          
   2334000   316.25061     -1390.6642      302          
   2335000   311.73687     -1378.7309      302          
   2336000   279.78962     -1393.7603      302          
   2337000   322.16006     -1374.616       302          
   2338000   287.4092      -1389.1447      302          
   2339000   313.84833     -1387.297       302          
   2340000   307.34771     -1375.8665      302          
   2341000   328.31266     -1372.475       302          
   2342000   279.68108     -1393.6946      302          
   2343000   289.2961      -1386.9518      302          
   2344000   354.36474     -1374.4159      302          
   2345000   284.49424     -1390.9524      302          
   2346000   338.99162     -1374.1098      302          
   2347000   295.37774     -1385.2399      302          
   2348000   280.6553      -1398.8898      302          
   2349000   301.60908     -1376.433       302          
   2350000   306.99853     -1391.5623      302          
   2351000   340.31677     -1366.0861      302          
   2352000   299.12429     -1381.375       302          
   2353000   271.66466     -1398.1647      302          
   2354000   279.93798     -1394.6231      302          
   2355000   305.46143     -1383.4444      302          
   2356000   318.73243     -1376.8034      302          
   2357000   307.03012     -1384.1358      302          
   2358000   351.80368     -1374.937       302          
   2359000   285.11014     -1397.6074      302          
   2360000   299.96843     -1378.7658      302          
   2361000   281.68703     -1396.6639      302          
   2362000   315.61195     -1382.1645      302          
   2363000   287.48175     -1387.6138      302          
   2364000   327.52907     -1376.322       302          
   2365000   263.46881     -1406.1426      302          
   2366000   309.02363     -1389.079       302          
   2367000   276.95158     -1400.2264      302          
   2368000   319.51374     -1372.0128      302          
   2369000   293.97985     -1391.6041      302          
   2370000   349.80258     -1370.9727      302          
   2371000   290.28065     -1391.3622      302          
   2372000   317.19014     -1378.2084      302          
   2373000   287.82668     -1398.5225      302          
   2374000   277.69946     -1400.8864      302          
   2375000   322.58615     -1384.6872      302          
   2376000   281.22426     -1392.9967      302          
   2377000   314.20884     -1377.4376      302          
   2378000   281.10588     -1396.6814      302          
   2379000   307.72745     -1384.5626      302          
   2380000   295.94745     -1392.0472      302          
   2381000   284.83005     -1397.2379      302          
   2382000   334.27576     -1372.189       302          
   2383000   320.84505     -1384.76        302          
   2384000   338.24663     -1372.5519      302          
   2385000   339.15137     -1383.8672      302          
   2386000   282.8033      -1398.927       302          
   2387000   289.88883     -1397.6888      302          
   2388000   256.98174     -1404.7162      302          
   2389000   316.65331     -1388.6856      302          
   2390000   280.05168     -1397.7138      302          
   2391000   277.21472     -1392.9442      302          
   2392000   337.27123     -1378.1285      302          
   2393000   382.40362     -1358.969       302          
   2394000   307.82086     -1383.8464      302          
   2395000   284.741       -1388.0597      302          
   2396000   322.01661     -1377.61        302          
   2397000   323.6986      -1387.6865      302          
   2398000   267.58401     -1403.6201      302          
   2399000   300.69297     -1379.4461      302          
   2400000   294.22288     -1386.6763      302          
   2401000   278.06621     -1392.8757      302          
   2402000   277.97653     -1381.032       302          
   2403000   301.54316     -1399.5885      302          
   2404000   322.28775     -1379.6711      302          
   2405000   320.48914     -1379.7353      302          
   2406000   302.63106     -1391.3984      302          
   2407000   306.02334     -1378.2646      302          
   2408000   327.89584     -1383.374       302          
   2409000   293.11038     -1399.8901      302          
   2410000   285.76743     -1387.6972      302          
   2411000   298.42992     -1388.0513      302          
   2412000   323.53774     -1380.8316      302          
   2413000   265.62628     -1397.1738      302          
   2414000   349.83178     -1370.034       302          
   2415000   300.16327     -1392.6798      302          
   2416000   305.40433     -1383.9189      302          
   2417000   331.87425     -1376.7245      302          
   2418000   299.03623     -1391.9968      302          
   2419000   347.59787     -1370.4987      302          
   2420000   284.88536     -1395.9374      302          
   2421000   312.68842     -1375.5402      302          
   2422000   271.4732      -1401.4989      302          
   2423000   358.33413     -1363.9064      302          
   2424000   313.07445     -1379.9563      302          
   2425000   271.31152     -1404.4285      302          
   2426000   265.20709     -1398.0253      302          
   2427000   346.02633     -1369.9706      302          
   2428000   320.82181     -1388.7622      302          
   2429000   301.64323     -1388.1393      302          
   2430000   296.99451     -1395.8313      302          
   2431000   335.89694     -1374.2797      302          
   2432000   302.42081     -1384.9901      302          
   2433000   318.46232     -1389.4778      302          
   2434000   327.0384      -1378.2338      302          
   2435000   286.18023     -1395.6112      302          
   2436000   317.84756     -1380.0609      302          
   2437000   280.09578     -1388.9185      302          
   2438000   317.94325     -1384.0135      302          
   2439000   290.34896     -1392.1452      302          
   2440000   376.80727     -1354.2939      302          
   2441000   249.48496     -1403.2477      302          
   2442000   307.52769     -1386.1339      302          
   2443000   319.66953     -1380.0375      302          
   2444000   298.45372     -1382.5843      302          
   2445000   292.94494     -1395.8087      302          
   2446000   289.67354     -1386.5904      302          
   2447000   267.85786     -1405.5965      302          
   2448000   293.70012     -1382.5449      302          
   2449000   291.8392      -1396.6031      302          
   2450000   307.17732     -1381.4         302          
   2451000   296.08799     -1390.0469      302          
   2452000   257.12257     -1401.6662      302          
   2453000   301.75429     -1378.7813      302          
   2454000   342.55118     -1372.6918      302          
   2455000   314.69303     -1383.6698      302          
   2456000   300.2823      -1390.1723      302          
   2457000   300.17768     -1380.9553      302          
   2458000   291.85558     -1391.2238      302          
   2459000   288.68727     -1394.2058      302          
   2460000   346.96156     -1369.0538      302          
   2461000   303.94078     -1378.2863      302          
   2462000   341.37975     -1376.6935      302          
   2463000   312.26526     -1379.0808      302          
   2464000   323.24084     -1384.5094      302          
   2465000   295.40218     -1385.9421      302          
   2466000   309.71138     -1378.6073      302          
   2467000   312.7112      -1381.139       302          
   2468000   282.60125     -1395.0822      302          
   2469000   304.26328     -1382.6512      302          
   2470000   312.29        -1376.4202      302          
   2471000   266.06975     -1409.8998      302          
   2472000   311.67772     -1378.4384      302          
   2473000   332.80938     -1385.9527      302          
   2474000   296.21287     -1389.9217      302          
   2475000   324.2166      -1378.0376      302          
   2476000   288.22133     -1397.3428      302          
   2477000   292.9434      -1387.2513      302          
   2478000   290.84185     -1396.2656      302          
   2479000   348.24709     -1367.7475      302          
   2480000   289.97532     -1399.329       302          
   2481000   271.01992     -1392.7254      302          
   2482000   281.67422     -1401.9513      302          
   2483000   270.48704     -1392.9342      302          
   2484000   292.09699     -1388.9903      302          
   2485000   294.46281     -1388.2224      302          
   2486000   340.18555     -1370.5258      302          
   2487000   278.73219     -1399.7873      302          
   2488000   299.1487      -1387.7149      302          
   2489000   317.97677     -1381.9018      302          
   2490000   269.49469     -1399.6979      302          
   2491000   317.04665     -1380.7482      302          
   2492000   337.86696     -1372.1774      302          
   2493000   283.34743     -1401.9751      302          
   2494000   318.0655      -1380.4401      302          
   2495000   291.28596     -1392.7949      302          
   2496000   298.79977     -1393.6103      302          
   2497000   288.03901     -1391.5007      302          
   2498000   338.20943     -1370.8269      302          
   2499000   274.98724     -1393.3013      302          
   2500000   325.14506     -1372.4753      302          
   2501000   282.3819      -1394.1423      302          
   2502000   329.09524     -1368.5056      302          
Loop time of 16627 on 8 procs for 2500000 steps with 906 atoms

Performance: 12.991 ns/day, 1.847 hours/ns, 150.358 timesteps/s, 136.224 katom-step/s
799.8% CPU use with 1 MPI tasks x 8 OpenMP threads

MPI task timing breakdown:
Section |  min time  |  avg time  |  max time  |%varavg| %total
---------------------------------------------------------------
Pair    | 1527.2     | 1527.2     | 1527.2     |   0.0 |  9.19
Bond    | 27.647     | 27.647     | 27.647     |   0.0 |  0.17
Kspace  | 898.45     | 898.45     | 898.45     |   0.0 |  5.40
Neigh   | 76.846     | 76.846     | 76.846     |   0.0 |  0.46
Comm    | 113.24     | 113.24     | 113.24     |   0.0 |  0.68
Output  | 0.056591   | 0.056591   | 0.056591   |   0.0 |  0.00
Modify  | 13977      | 13977      | 13977      |   0.0 | 84.06
Other   |            | 6.491      |            |       |  0.04

Nlocal:            906 ave         906 max         906 min
Histogram: 1 0 0 0 0 0 0 0 0 0
Nghost:           7690 ave        7690 max        7690 min
Histogram: 1 0 0 0 0 0 0 0 0 0
Neighs:         301656 ave      301656 max      301656 min
Histogram: 1 0 0 0 0 0 0 0 0 0

Total # of neighbors = 301656
Ave neighs/atom = 332.95364
Ave special neighs/atom = 2
Neighbor list builds = 2550014
Dangerous builds = 0
Total wall time: 4:37:07
