LAMMPS (27 Jun 2024)
  using 8 OpenMP thread(s) per MPI task
package omp 0
using multi-threaded neighbor list subroutines
# LAMMPS input script by Simon Gravelle
# For LAMMPS tutorials, see https://lammpstutorials.github.io
# Last tested using the 27Jun2024 LAMMPS version

variable Nstep equal 2500000
variable mu_K equal -3600
variable mu_kcal_mol equal ${mu_K}*0.0019872041
variable mu_kcal_mol equal -3600*0.0019872041
print "mu equal ${mu_kcal_mol}"
mu equal -7.15393476
variable tfac equal 5.0/3.0
variable Nattempt equal 100

units real
boundary p p p
atom_style full
pair_style lj/cut/coul/long 12
kspace_style ewald 1.0e-5
bond_style harmonic
angle_style harmonic
pair_modify mix geometric
special_bonds lj 0.0 0.0 0.0 coul 0.0 0.0 0.0 angle yes

read_data box.data
Reading data file ...
  orthogonal box = (-12.5 -12.5 -12.5) to (12.5 12.5 12.5)
  1 by 1 by 1 MPI processor grid
  reading atom labelmap ...
  reading bond labelmap ...
  reading angle labelmap ...
  reading atoms ...
  150 atoms
  reading velocities ...
  150 velocities
  scanning bonds ...
  1 = max bonds/atom
  scanning angles ...
  1 = max angles/atom
  orthogonal box = (-12.5 -12.5 -12.5) to (12.5 12.5 12.5)
  1 by 1 by 1 MPI processor grid
  reading bonds ...
  100 bonds
  reading angles ...
  50 angles
Finding 1-2 1-3 1-4 neighbors ...
  special bond factors lj:    0        0        0       
  special bond factors coul:  0        0        0       
     2 = max # of 1-2 neighbors
     1 = max # of 1-3 neighbors
     1 = max # of 1-4 neighbors
  100 = # of 1-3 neighbors before angle trim
  100 = # of 1-3 neighbors after angle trim
     2 = max # of special neighbors
  special bonds CPU = 0.000 seconds
  read_data CPU = 0.011 seconds
labelmap atom 1 O 2 C
labelmap bond 1 C-O
labelmap angle 1 O-C-O

group CO2 type C O
150 atoms in group CO2
include parm.lmp
# LAMMPS parameter file for H2O SPCE water model
# For conversion from K to kcal / mol, multiply
# by Boltzmann = 0.0019872041 kcal / (mol * K)

mass O 15.9994
mass C 12.0110

pair_coeff O O 0.164858 3.011
pair_coeff C C 0.05894 2.789

bond_coeff C-O 0.0 1.18 # rigid

angle_coeff O-C-O 0.0 180.0 # rigid

molecule CO2mol CO2.mol
Read molecule template CO2mol:
# LAMMPS molecule file for carbondioxide
  1 molecules
  0 fragments
  3 atoms with max type 2
  2 bonds with max type 1
  1 angles with max type 1
  0 dihedrals with max type 0
  0 impropers with max type 0

fix mynvt CO2 rigid/nvt/small molecule temp 300 300 100 mol CO2mol
  create bodies CPU = 0.000 seconds
  50 rigid bodies with 150 atoms
  1.18 = max distance from body owner to body atom
thermo 1000

run 2000

CITE-CITE-CITE-CITE-CITE-CITE-CITE-CITE-CITE-CITE-CITE-CITE-CITE

Your simulation uses code contributions which should be cited:

- Type Label Framework: https://doi.org/10.1021/acs.jpcb.3c08419

@Article{Gissinger24,
 author = {Jacob R. Gissinger, Ilia Nikiforov, Yaser Afshar, Brendon Waters, Moon-ki Choi, Daniel S. Karls, Alexander Stukowski, Wonpil Im, Hendrik Heinz, Axel Kohlmeyer, and Ellad B. Tadmor},
 title = {Type Label Framework for Bonded Force Fields in LAMMPS},
 journal = {J. Phys. Chem. B},
 year =    2024,
 volume =  128,
 number =  13,
 pages =   {3282â€“-3297}
}

CITE-CITE-CITE-CITE-CITE-CITE-CITE-CITE-CITE-CITE-CITE-CITE-CITE

Ewald initialization ...
  using 12-bit tables for long-range coulomb (src/kspace.cpp:342)
  G vector (1/distance) = 0.21801154
  estimated absolute RMS force accuracy = 0.0034006373
  estimated relative force accuracy = 1.0240918e-05
  KSpace vectors: actual max1d max3d = 257 5 665
                  kxmax kymax kzmax  = 5 5 5
Generated 1 of 1 mixed pair_coeff terms from geometric mixing rule
Last active /omp style is kspace_style ewald/omp
Neighbor list info ...
  update: every = 1 steps, delay = 0 steps, check = yes
  max neighbors/atom: 2000, page size: 100000
  master list distance cutoff = 14
  ghost atom cutoff = 14
  binsize = 7, bins = 4 4 4
  1 neighbor lists, perpetual/occasional/extra = 1 0 0
  (1) pair lj/cut/coul/long/omp, perpetual
      attributes: half, newton on, omp
      pair build: half/bin/newton/omp
      stencil: half/bin/3d
      bin: standard
Per MPI rank memory allocation (min/avg/max) = 26.82 | 26.82 | 26.82 Mbytes
   Step          Temp          E_pair         E_mol          TotEng         Press     
         0   0             -24.115729      0             -24.115729     -139.61173    
      1000   270.80748     -28.024535      0              38.437043      69.359993    
      2000   302.41636     -29.459348      0              44.759684      89.86941     
Loop time of 0.329524 on 8 procs for 2000 steps with 150 atoms

Performance: 524.393 ns/day, 0.046 hours/ns, 6069.360 timesteps/s, 910.404 katom-step/s
802.6% CPU use with 1 MPI tasks x 8 OpenMP threads

MPI task timing breakdown:
Section |  min time  |  avg time  |  max time  |%varavg| %total
---------------------------------------------------------------
Pair    | 0.026706   | 0.026706   | 0.026706   |   0.0 |  8.10
Bond    | 0.0087205  | 0.0087205  | 0.0087205  |   0.0 |  2.65
Kspace  | 0.16136    | 0.16136    | 0.16136    |   0.0 | 48.97
Neigh   | 0.0015022  | 0.0015022  | 0.0015022  |   0.0 |  0.46
Comm    | 0.013032   | 0.013032   | 0.013032   |   0.0 |  3.95
Output  | 1.4091e-05 | 1.4091e-05 | 1.4091e-05 |   0.0 |  0.00
Modify  | 0.1171     | 0.1171     | 0.1171     |   0.0 | 35.54
Other   |            | 0.001086   |            |       |  0.33

Nlocal:            150 ave         150 max         150 min
Histogram: 1 0 0 0 0 0 0 0 0 0
Nghost:           1372 ave        1372 max        1372 min
Histogram: 1 0 0 0 0 0 0 0 0 0
Neighs:           8049 ave        8049 max        8049 min
Histogram: 1 0 0 0 0 0 0 0 0 0

Total # of neighbors = 8049
Ave neighs/atom = 53.66
Ave special neighs/atom = 2
Neighbor list builds = 20
Dangerous builds = 0

fix fgcmc CO2 gcmc 100 ${Nattempt} 0 0 25899 300 ${mu_kcal_mol} 0.1     mol CO2mol tfac_insert ${tfac} full_energy rigid mynvt
fix fgcmc CO2 gcmc 100 100 0 0 25899 300 ${mu_kcal_mol} 0.1     mol CO2mol tfac_insert ${tfac} full_energy rigid mynvt
fix fgcmc CO2 gcmc 100 100 0 0 25899 300 -7.15393476 0.1     mol CO2mol tfac_insert ${tfac} full_energy rigid mynvt
fix fgcmc CO2 gcmc 100 100 0 0 25899 300 -7.15393476 0.1     mol CO2mol tfac_insert 1.66666666666667 full_energy rigid mynvt

variable carbon atom "type==2"
group carbon dynamic all var carbon
dynamic group carbon defined
variable nC equal count(carbon)
fix myat1 all ave/time 10 10 1000 v_nC file number_CO2.dat
variable density equal v_nC*(2*15.9994+12.011)/vol/6.022e23*(1e8)^3
fix myat2 all ave/time 10 10 1000 v_density file density_CO2.dat
compute press all pressure thermo_temp
fix myat3 all ave/time 10 100 1000 c_press file pressure_CO2.dat
thermo_style custom step temp etotal v_nC

run ${Nstep}
run 2500000
Ewald initialization ...
  using 12-bit tables for long-range coulomb (src/kspace.cpp:342)
  G vector (1/distance) = 0.21801154
  estimated absolute RMS force accuracy = 0.0034006373
  estimated relative force accuracy = 1.0240918e-05
  KSpace vectors: actual max1d max3d = 257 5 665
                  kxmax kymax kzmax  = 5 5 5
Generated 1 of 1 mixed pair_coeff terms from geometric mixing rule
Last active /omp style is kspace_style ewald/omp
0 atoms in group FixGCMC:gcmc_exclusion_group:fgcmc
0 atoms in group FixGCMC:rotation_gas_atoms:fgcmc
WARNING: Neighbor exclusions used with KSpace solver may give inconsistent Coulombic energies (src/neighbor.cpp:658)
Per MPI rank memory allocation (min/avg/max) = 26.82 | 26.82 | 26.82 Mbytes
   Step          Temp          TotEng          v_nC     
      2000   302.41636      44.759684      50           
      3000   373.89442      17.897279      78           
      4000   302.06259     -58.246992      103          
      5000   332.09894     -156.27118      128          
      6000   315.3391      -304.61108      157          
      7000   306.8728      -472.4678       185          
      8000   296.87043     -639.58273      210          
      9000   311.36839     -697.93397      216          
     10000   275.3024      -819.41532      233          
     11000   299.78659     -891.41077      243          
     12000   298.83162     -962.53411      253          
     13000   354.2013      -1007.3989      262          
     14000   293.3163      -1051.7623      265          
     15000   325.59036     -1078.1193      270          
     16000   301.6055      -1097.8566      271          
     17000   295.5131      -1146.9713      276          
     18000   299.30364     -1168.6874      279          
     19000   334.08085     -1173.3013      281          
     20000   308.01415     -1173.3007      282          
     21000   287.41141     -1212.698       284          
     22000   293.35398     -1220.6946      285          
     23000   274.24208     -1228.3464      286          
     24000   319.44738     -1215.9986      286          
     25000   301.6179      -1228.819       287          
     26000   291.74635     -1246.8834      288          
     27000   337.45285     -1226.9033      289          
     28000   275.70089     -1257.1588      289          
     29000   305.18673     -1251.5683      290          
     30000   341.30078     -1246.9437      290          
     31000   278.04013     -1285.9373      291          
     32000   288.62095     -1268.5207      291          
     33000   317.71426     -1267.978       291          
     34000   349.69214     -1259.5635      292          
     35000   252.43101     -1294.379       292          
     36000   272.63309     -1285.9364      292          
     37000   349.76307     -1260.999       292          
     38000   297.78474     -1282.0858      292          
     39000   305.84551     -1270.5613      292          
     40000   305.0679      -1282.1638      292          
     41000   272.32203     -1294.2639      292          
     42000   297.30394     -1277.9217      292          
     43000   308.70655     -1264.6645      292          
     44000   321.03723     -1271.109       292          
     45000   300.04938     -1266.8909      292          
     46000   304.69972     -1283.6831      292          
     47000   274.34432     -1287.2238      292          
     48000   358.40911     -1255.4883      292          
     49000   292.58562     -1295.4319      292          
     50000   322.48938     -1268.4804      292          
     51000   313.19033     -1273.218       292          
     52000   283.01683     -1294.1015      292          
     53000   323.73843     -1272.9362      292          
     54000   274.69187     -1284.0692      292          
     55000   294.96529     -1292.567       293          
     56000   285.1286      -1288.9563      293          
     57000   301.9747      -1280.7062      293          
     58000   318.92264     -1287.7761      293          
     59000   304.83418     -1298.6605      293          
     60000   298.86418     -1294.3553      293          
     61000   277.1952      -1296.1385      293          
     62000   328.58216     -1272.9981      293          
     63000   300.12993     -1295.3702      293          
     64000   314.46148     -1286.8331      293          
     65000   264.08459     -1302.347       293          
     66000   316.21759     -1282.2625      293          
     67000   296.40606     -1296.7353      293          
     68000   339.95188     -1272.3941      293          
     69000   301.19793     -1282.3781      293          
     70000   274.51379     -1302.0868      293          
     71000   330.73131     -1282.6503      293          
     72000   283.76657     -1303.2644      293          
     73000   275.45236     -1304.9791      293          
     74000   310.44277     -1283.8919      293          
     75000   300.11043     -1300.7106      293          
     76000   293.49245     -1295.4155      293          
     77000   310.1241      -1286.1662      293          
     78000   324.17637     -1291.6994      293          
     79000   356.11701     -1288.6951      293          
     80000   298.8614      -1299.2077      293          
     81000   352.46703     -1281.6681      294          
     82000   298.08941     -1297.7541      294          
     83000   301.74496     -1300.7863      294          
     84000   257.36798     -1321.216       294          
     85000   285.91777     -1300.107       294          
     86000   350.01155     -1285.3056      294          
     87000   273.85387     -1313.6407      294          
     88000   310.26608     -1296.7311      294          
     89000   271.78404     -1316.2149      294          
     90000   293.65304     -1296.5743      294          
     91000   323.64141     -1294.8923      294          
     92000   299.84601     -1303.4031      294          
     93000   323.03032     -1293.8854      294          
     94000   297.2907      -1309.5781      294          
     95000   309.22448     -1293.2345      294          
     96000   323.76393     -1307.2493      294          
     97000   298.26392     -1303.4504      294          
     98000   302.30138     -1301.023       294          
     99000   329.34143     -1289.6809      294          
    100000   305.75837     -1309.5024      294          
    101000   297.78138     -1302.836       294          
    102000   306.03533     -1303.238       294          
    103000   287.02836     -1313.773       294          
    104000   336.20028     -1303.407       294          
    105000   297.75187     -1309.494       294          
    106000   295.56711     -1308.8899      294          
    107000   263.50486     -1324.7267      294          
    108000   317.43885     -1303.9157      294          
    109000   301.25737     -1308.5846      294          
    110000   319.20057     -1291.8978      294          
    111000   335.02316     -1300.6318      294          
    112000   308.10646     -1289.4028      294          
    113000   308.46584     -1311.5934      294          
    114000   271.6407      -1324.2269      294          
    115000   285.91875     -1312.1986      294          
    116000   309.04358     -1306.5183      294          
    117000   334.92551     -1294.5735      294          
    118000   279.96335     -1320.3703      294          
    119000   258.99548     -1330.257       295          
    120000   311.45996     -1309.3572      295          
    121000   273.22745     -1325.4849      295          
    122000   301.68099     -1310.7536      295          
    123000   292.46664     -1312.4576      295          
    124000   302.11936     -1309.3418      295          
    125000   331.60156     -1306.6726      295          
    126000   328.30118     -1294.9265      295          
    127000   266.31855     -1328.525       295          
    128000   286.71226     -1320.5732      295          
    129000   276.13536     -1318.7704      295          
    130000   289.82773     -1310.0101      295          
    131000   273.99618     -1325.7034      295          
    132000   324.61183     -1302.6894      295          
    133000   281.39511     -1323.831       295          
    134000   306.65642     -1303.9791      295          
    135000   265.62482     -1332.6507      295          
    136000   315.59658     -1306.5292      295          
    137000   292.69086     -1323.4778      295          
    138000   316.5902      -1317.7185      295          
    139000   291.13194     -1315.4265      295          
    140000   322.53019     -1296.0123      295          
    141000   300.02819     -1323.7537      295          
    142000   262.73043     -1333.7058      295          
    143000   268.56712     -1327.1423      295          
    144000   322.44028     -1304.2724      295          
    145000   338.48124     -1295.1836      295          
    146000   268.69714     -1333.7738      295          
    147000   307.03545     -1307.9758      295          
    148000   285.6971      -1322.4573      295          
    149000   286.58394     -1316.4246      295          
    150000   311.57287     -1304.0454      295          
    151000   329.83759     -1307.2224      295          
    152000   269.12797     -1325.6596      295          
    153000   290.13534     -1311.3365      295          
    154000   289.30183     -1319.6675      295          
    155000   299.50705     -1311.2198      295          
    156000   289.65344     -1317.8139      295          
    157000   321.66516     -1305.6311      295          
    158000   303.88931     -1319.7268      295          
    159000   309.73839     -1305.554       295          
    160000   312.5866      -1316.8679      295          
    161000   280.77028     -1315.2959      295          
    162000   319.43269     -1316.3615      295          
    163000   346.24733     -1298.5408      295          
    164000   286.38408     -1325.6516      295          
    165000   321.78698     -1304.8457      295          
    166000   300.9878      -1323.5934      295          
    167000   322.81588     -1310.4309      295          
    168000   300.73726     -1320.3971      295          
    169000   290.72723     -1311.1485      295          
    170000   323.77414     -1311.5062      295          
    171000   286.98295     -1321.8785      295          
    172000   339.51684     -1306.818       295          
    173000   270.34734     -1333.2755      295          
    174000   272.51111     -1320.2665      295          
    175000   302.98761     -1318.9593      295          
    176000   288.13374     -1323.1527      295          
    177000   308.44847     -1302.7656      294          
    178000   313.31794     -1310.8211      294          
    179000   298.35981     -1306.5438      294          
    180000   297.46323     -1321.3363      294          
    181000   287.18132     -1312.9461      295          
    182000   295.08033     -1323.5311      295          
    183000   329.29124     -1302.2456      295          
    184000   305.43897     -1316.7977      295          
    185000   308.07301     -1303.0229      295          
    186000   308.20103     -1319.1561      295          
    187000   318.32533     -1314.341       295          
    188000   298.98194     -1317.9696      295          
    189000   269.26822     -1325.3925      295          
    190000   281.71308     -1320.6917      295          
    191000   301.23216     -1307.032       295          
    192000   295.0465      -1320.8835      295          
    193000   279.22446     -1322.912       295          
    194000   289.10056     -1320.5557      295          
    195000   293.95257     -1316.923       295          
    196000   300.30116     -1323.672       295          
    197000   310.23745     -1310.5894      295          
    198000   285.7496      -1326.0331      295          
    199000   326.36138     -1295.0676      295          
    200000   288.91816     -1323.0677      295          
    201000   292.28713     -1314.6628      295          
    202000   309.23011     -1314.9605      295          
    203000   305.37534     -1320.6622      295          
    204000   260.889       -1336.1222      296          
    205000   293.93866     -1322.1323      296          
    206000   318.32529     -1303.0886      296          
    207000   301.98107     -1318.7626      296          
    208000   321.43253     -1315.8497      296          
    209000   295.15007     -1336.9843      296          
    210000   289.12834     -1331.9523      296          
    211000   330.10991     -1315.4178      296          
    212000   287.95791     -1332.526       296          
    213000   296.00143     -1333.4609      296          
    214000   311.15753     -1328.4173      296          
    215000   282.41618     -1329.1238      296          
    216000   299.64129     -1321.8121      296          
    217000   274.85658     -1331.6394      296          
    218000   315.41755     -1318.707       296          
    219000   329.43213     -1315.1806      296          
    220000   284.57666     -1336.0722      296          
    221000   284.22918     -1332.313       296          
    222000   335.39446     -1314.6973      296          
    223000   290.95123     -1325.6004      296          
    224000   327.59184     -1316.0379      296          
    225000   331.2823      -1310.1052      296          
    226000   290.71007     -1337.4366      296          
    227000   316.10844     -1317.0367      296          
    228000   291.73035     -1323.4634      296          
    229000   297.72988     -1332.2772      296          
    230000   358.50286     -1305.8497      296          
    231000   323.87813     -1321.42        296          
    232000   290.86529     -1331.8374      296          
    233000   315.91666     -1315.4187      296          
    234000   327.9278      -1318.9938      296          
    235000   290.31599     -1328.3149      296          
    236000   311.5428      -1322.1411      296          
    237000   316.01867     -1316.5593      296          
    238000   299.57698     -1328.2499      296          
    239000   337.72637     -1308.5893      296          
    240000   299.49142     -1330.6916      296          
    241000   309.70096     -1319.1104      296          
    242000   313.68443     -1316.202       296          
    243000   331.39888     -1308.9744      296          
    244000   295.33142     -1332.9172      296          
    245000   317.11585     -1315.3971      296          
    246000   279.47475     -1335.7972      296          
    247000   326.85845     -1309.1622      296          
    248000   311.95302     -1325.0395      296          
    249000   281.73625     -1330.2069      296          
    250000   337.27048     -1310.4512      296          
    251000   351.94905     -1304.5364      296          
    252000   277.30254     -1330.3321      296          
    253000   316.62376     -1324.2971      296          
    254000   342.79015     -1310.9064      296          
    255000   292.40681     -1333.7734      296          
    256000   332.88884     -1317.6708      296          
    257000   307.88359     -1323.3347      296          
    258000   295.1854      -1329.707       296          
    259000   273.80771     -1332.7906      296          
    260000   327.51993     -1321.1911      296          
    261000   296.01747     -1325.0943      296          
    262000   330.22196     -1318.2137      296          
    263000   319.48628     -1334.5234      296          
    264000   305.0407      -1331.8559      296          
    265000   299.02511     -1314.5968      296          
    266000   311.59649     -1324.0565      296          
    267000   282.74466     -1339.7293      296          
    268000   336.73054     -1309.5333      296          
    269000   277.24358     -1337.8816      296          
    270000   291.29734     -1333.5837      296          
    271000   260.3857      -1346.7315      296          
    272000   332.85501     -1314.2866      296          
    273000   298.05916     -1325.4621      296          
    274000   296.279       -1321.0168      296          
    275000   262.10715     -1351.9727      297          
    276000   317.76375     -1328.1805      297          
    277000   314.07383     -1338.2599      297          
    278000   297.20327     -1327.0853      297          
    279000   333.1651      -1329.3682      297          
    280000   285.05628     -1344.7192      297          
    281000   317.88862     -1323.7368      297          
    282000   349.96923     -1318.6291      297          
    283000   334.32515     -1333.2655      297          
    284000   285.79383     -1347.0438      297          
    285000   278.51918     -1341.9908      297          
    286000   297.15517     -1339.8653      297          
    287000   345.22098     -1332.2389      298          
    288000   307.81654     -1343.0345      298          
    289000   346.98771     -1341.7499      298          
    290000   340.82775     -1346.7267      300          
    291000   325.63575     -1360.039       300          
    292000   309.95416     -1362.0035      300          
    293000   301.677       -1347.5671      300          
    294000   281.39577     -1368.0737      300          
    295000   350.1366      -1340.701       300          
    296000   348.80877     -1346.0852      300          
    297000   312.44961     -1362.0311      300          
    298000   264.34601     -1377.4433      300          
    299000   329.20829     -1350.9073      300          
    300000   329.31931     -1357.5045      300          
    301000   269.44274     -1372.3847      300          
    302000   313.99521     -1348.8678      300          
    303000   313.83218     -1370.3976      300          
    304000   297.22622     -1360.5397      300          
    305000   283.23781     -1373.781       300          
    306000   308.09347     -1353.0178      300          
    307000   292.65792     -1367.7375      300          
    308000   290.84444     -1362.4772      300          
    309000   324.58312     -1361.5576      300          
    310000   267.37066     -1376.3234      300          
    311000   316.3095      -1356.3037      300          
    312000   267.67718     -1378.8982      300          
    313000   334.11025     -1352.1664      300          
    314000   274.9025      -1367.871       300          
    315000   295.67708     -1365.2522      300          
    316000   281.09533     -1375.7695      300          
    317000   282.64953     -1373.0222      300          
    318000   323.44346     -1361.9818      300          
    319000   289.50636     -1358.0904      300          
    320000   311.47684     -1358.5768      300          
    321000   287.11908     -1371.6621      300          
    322000   359.49532     -1339.9755      300          
    323000   275.97412     -1376.8946      300          
    324000   305.66602     -1352.8132      300          
    325000   296.66049     -1368.1252      300          
    326000   266.81994     -1369.296       300          
    327000   300.82462     -1365.6203      300          
    328000   324.4892      -1349.4804      300          
    329000   287.21424     -1363.4327      300          
    330000   281.92222     -1368.513       300          
    331000   303.14471     -1361.1257      300          
    332000   302.49425     -1373.0306      300          
    333000   311.26015     -1361.3826      300          
    334000   284.2208      -1372.9891      300          
    335000   299.48326     -1356.5276      300          
    336000   275.91983     -1375.887       300          
    337000   251.10966     -1377.5595      300          
    338000   366.63519     -1331.7136      300          
    339000   273.79252     -1372.7321      300          
    340000   308.10922     -1366.0879      300          
    341000   329.8753      -1355.2564      300          
    342000   333.42069     -1358.9668      300          
    343000   294.84056     -1359.9607      300          
    344000   286.57745     -1374.8531      300          
    345000   321.94381     -1355.3165      300          
    346000   296.24524     -1357.7003      300          
    347000   274.88346     -1375.407       300          
    348000   332.23432     -1347.8538      300          
    349000   279.50021     -1381.3406      300          
    350000   349.4925      -1342.3813      300          
    351000   318.71106     -1358.9528      300          
    352000   276.3386      -1381.5615      300          
    353000   289.86327     -1371.0608      300          
    354000   333.08562     -1355.6322      300          
    355000   318.96034     -1358.1901      300          
    356000   303.42405     -1354.4774      300          
    357000   306.58846     -1367.2934      300          
    358000   277.16563     -1371.4374      300          
    359000   290.34605     -1369.4728      300          
    360000   323.01031     -1355.5055      300          
    361000   327.88662     -1363.5363      300          
    362000   286.02629     -1376.6514      300          
    363000   277.50866     -1366.6914      300          
    364000   250.10925     -1388.7189      300          
    365000   269.73805     -1364.7344      300          
    366000   330.46939     -1350.553       300          
    367000   287.47937     -1362.8238      300          
    368000   328.31401     -1350.8557      300          
    369000   317.63641     -1355.168       300          
    370000   300.81396     -1362.8758      300          
    371000   309.28374     -1370.2192      300          
    372000   323.76985     -1350.1412      300          
    373000   318.50877     -1358.2305      300          
    374000   330.25824     -1358.2045      300          
    375000   263.27832     -1379.8794      300          
    376000   297.14187     -1364.1401      300          
    377000   297.04422     -1363.8043      300          
    378000   316.25179     -1360.6727      300          
    379000   344.38312     -1346.4629      300          
    380000   352.10977     -1346.6773      300          
    381000   295.58984     -1364.4951      300          
    382000   294.8811      -1360.8811      300          
    383000   302.3885      -1370.2256      300          
    384000   274.97583     -1370.7938      300          
    385000   284.35479     -1375.6218      300          
    386000   287.56997     -1372.593       300          
    387000   297.68162     -1365.7491      300          
    388000   303.36777     -1360.4178      300          
    389000   285.00067     -1372.836       300          
    390000   330.81071     -1341.3211      300          
    391000   291.58132     -1372.399       300          
    392000   289.71094     -1366.7238      300          
    393000   314.44306     -1352.6236      300          
    394000   285.03246     -1369.6068      300          
    395000   309.58278     -1366.7622      300          
    396000   305.65327     -1354.3055      300          
    397000   306.51758     -1359.9982      300          
    398000   329.1097      -1348.9724      300          
    399000   308.11556     -1369.3376      300          
    400000   296.96782     -1371.937       300          
    401000   300.38648     -1361.5316      300          
    402000   287.38389     -1367.3251      300          
    403000   279.03547     -1371.4879      300          
    404000   278.2657      -1362.0316      300          
    405000   294.77764     -1359.582       300          
    406000   342.06319     -1355.1955      300          
    407000   279.33064     -1374.685       300          
    408000   299.27186     -1357.1971      300          
    409000   275.89324     -1374.429       300          
    410000   303.51833     -1359.0677      300          
    411000   310.7285      -1368.3161      300          
    412000   316.99674     -1351.8606      300          
    413000   317.93463     -1356.0271      300          
    414000   299.48279     -1366.934       300          
    415000   318.66058     -1352.439       300          
    416000   317.38719     -1361.5826      300          
    417000   332.34984     -1355.081       300          
    418000   346.06558     -1341.8768      300          
    419000   253.46119     -1384.4965      300          
    420000   319.70298     -1353.8222      300          
    421000   264.07086     -1373.2677      300          
    422000   302.62867     -1358.7143      300          
    423000   341.51059     -1350.5423      300          
    424000   336.00496     -1357.5275      300          
    425000   272.5024      -1381.3934      300          
    426000   354.8494      -1342.998       300          
    427000   339.61387     -1348.5838      300          
    428000   328.20025     -1356.1868      300          
    429000   285.37483     -1376.7832      300          
    430000   350.89877     -1343.6152      300          
    431000   331.4887      -1364.4044      300          
    432000   349.56582     -1338.2022      300          
    433000   284.94929     -1373.7775      300          
    434000   327.47953     -1361.714       300          
    435000   266.67278     -1373.6107      300          
    436000   324.78294     -1347.0082      300          
    437000   320.3829      -1355.0286      300          
    438000   303.81641     -1365.2118      300          
    439000   330.37295     -1348.7713      300          
    440000   282.86493     -1371.0972      299          
    441000   270.49419     -1363.4558      299          
    442000   299.24167     -1350.5971      299          
    443000   286.96631     -1363.6434      300          
    444000   320.01598     -1352.2865      300          
    445000   282.4069      -1378.4426      300          
    446000   287.88439     -1374.0093      300          
    447000   317.86351     -1361.7369      300          
    448000   364.03962     -1341.8318      300          
    449000   284.44902     -1374.8522      300          
    450000   274.8863      -1369.1045      300          
    451000   322.58281     -1355.2644      300          
    452000   351.33342     -1351.0292      300          
    453000   281.00765     -1378.104       300          
    454000   329.27757     -1351.4713      300          
    455000   298.46827     -1369.9196      300          
    456000   285.14488     -1372.4441      300          
    457000   323.90994     -1363.7546      300          
    458000   276.32822     -1371.8068      300          
    459000   362.72996     -1344.4838      300          
    460000   285.69056     -1373.0374      300          
    461000   299.12137     -1377.3939      300          
    462000   328.57132     -1363.1332      300          
    463000   291.24764     -1372.5314      300          
    464000   318.43552     -1361.4219      300          
    465000   273.65132     -1375.6946      300          
    466000   285.31986     -1361.8096      300          
    467000   278.5403      -1375.4971      300          
    468000   314.03715     -1358.8477      300          
    469000   278.73122     -1377.6696      300          
    470000   277.6384      -1370.7097      300          
    471000   349.76719     -1343.6567      300          
    472000   278.22334     -1378.9509      300          
    473000   319.10138     -1360.9404      300          
    474000   327.71262     -1348.6892      300          
    475000   300.40687     -1366.6326      300          
    476000   296.78725     -1366.3413      300          
    477000   295.35523     -1368.6132      300          
    478000   337.03484     -1349.5331      300          
    479000   294.0084      -1365.4741      300          
    480000   256.98023     -1378.9479      300          
    481000   312.09985     -1352.0554      300          
    482000   288.32244     -1369.8347      300          
    483000   357.65601     -1342.0983      300          
    484000   307.31066     -1360.214       300          
    485000   303.53629     -1355.9387      300          
    486000   321.36469     -1361.9105      300          
    487000   257.8863      -1381.447       300          
    488000   325.54286     -1349.6584      300          
    489000   265.42602     -1382.6744      300          
    490000   328.15568     -1351.4905      300          
    491000   280.73496     -1375.7313      300          
    492000   305.33386     -1355.3171      300          
    493000   297.1539      -1367.9994      300          
    494000   283.32261     -1368.8476      300          
    495000   305.72223     -1362.9378      300          
    496000   256.63252     -1376.623       300          
    497000   326.12874     -1354.2053      300          
    498000   311.31164     -1361.6336      300          
    499000   287.4318      -1366.3233      300          
    500000   315.40309     -1356.9554      300          
    501000   342.47633     -1351.0914      300          
    502000   285.26246     -1371.2368      300          
    503000   321.4032      -1356.17        300          
    504000   330.56929     -1351.9711      300          
    505000   313.49023     -1363.8918      300          
    506000   308.96972     -1357.7344      300          
    507000   293.59206     -1365.0268      300          
    508000   308.49125     -1361.3657      300          
    509000   290.97145     -1370.6306      300          
    510000   340.80169     -1348.6696      300          
    511000   291.97307     -1368.928       300          
    512000   336.18916     -1356.9877      300          
    513000   273.51189     -1380.8486      300          
    514000   327.39095     -1352.8084      300          
    515000   292.8366      -1371.2861      300          
    516000   287.51572     -1368.4957      300          
    517000   320.94683     -1357.4506      300          
    518000   296.31395     -1366.5853      300          
    519000   315.2276      -1364.0965      300          
    520000   294.51304     -1365.2881      300          
    521000   328.56837     -1363.5193      300          
    522000   305.79921     -1362.5503      300          
    523000   297.73369     -1366.5367      300          
    524000   294.87677     -1366.0554      300          
    525000   290.22126     -1366.3979      300          
    526000   298.42069     -1369.8131      300          
    527000   284.7354      -1371.2453      300          
    528000   347.56007     -1342.8941      300          
    529000   362.09169     -1353.3473      300          
    530000   273.90543     -1378.5201      300          
    531000   334.16744     -1354.4861      300          
    532000   311.17463     -1361.039       300          
    533000   322.82937     -1350.5419      300          
    534000   323.8695      -1358.5209      300          
    535000   258.83131     -1384.5836      300          
    536000   286.08286     -1379.6071      300          
    537000   306.56614     -1353.3884      300          
    538000   292.31591     -1377.7529      300          
    539000   297.12146     -1363.4217      300          
    540000   334.6841      -1357.7266      300          
    541000   300.31212     -1370.0306      300          
    542000   330.6754      -1343.5293      300          
    543000   292.09596     -1368.0754      300          
    544000   319.82854     -1351.2847      300          
    545000   303.44628     -1363.7328      300          
    546000   324.51417     -1354.6559      300          
    547000   303.62547     -1370.0558      300          
    548000   286.25265     -1372.8392      300          
    549000   283.58596     -1365.5281      300          
    550000   330.85624     -1356.7572      300          
    551000   320.10532     -1360.8679      300          
    552000   301.57862     -1359.7268      300          
    553000   276.10282     -1378.881       300          
    554000   335.76661     -1351.4957      300          
    555000   350.73697     -1346.5759      300          
    556000   282.61554     -1373.0431      300          
    557000   274.30092     -1373.2161      300          
    558000   276.87858     -1374.2279      300          
    559000   316.3344      -1361.1455      300          
    560000   291.86388     -1374.2314      300          
    561000   330.72947     -1349.908       300          
    562000   303.17006     -1369.8353      300          
    563000   272.59757     -1380.4443      300          
    564000   309.32081     -1360.0385      300          
    565000   326.36601     -1365.9786      300          
    566000   326.75268     -1362.5769      300          
    567000   256.19956     -1382.8069      300          
    568000   355.64706     -1344.3319      300          
    569000   315.81776     -1356.0511      300          
    570000   265.21301     -1378.8658      300          
    571000   283.72677     -1367.8772      300          
    572000   265.72123     -1381.8354      300          
    573000   337.48154     -1346.4434      300          
    574000   272.29606     -1380.0588      300          
    575000   315.30368     -1356.688       300          
    576000   355.24501     -1344.5955      300          
    577000   253.18526     -1386.1006      300          
    578000   280.46261     -1379.1421      300          
    579000   317.45525     -1356.8527      300          
    580000   301.97084     -1354.4828      300          
    581000   329.71036     -1356.9254      300          
    582000   343.35482     -1352.9056      300          
    583000   281.74408     -1371.6644      300          
    584000   307.18533     -1362.3718      300          
    585000   319.98612     -1358.9776      300          
    586000   326.11384     -1362.975       300          
    587000   293.13441     -1361.7834      300          
    588000   352.28547     -1341.2478      300          
    589000   273.63696     -1376.9115      300          
    590000   313.98273     -1354.5893      300          
    591000   307.96481     -1367.6382      300          
    592000   312.25815     -1350.3655      300          
    593000   317.5504      -1365.9075      300          
    594000   261.54379     -1376.2774      300          
    595000   314.75969     -1351.7998      300          
    596000   308.90484     -1366.3283      300          
    597000   275.99862     -1373.0699      300          
    598000   314.8795      -1366.9053      300          
    599000   301.36518     -1368.6501      300          
    600000   300.01721     -1367.5631      300          
    601000   311.27198     -1365.6874      300          
    602000   307.68634     -1359.9097      300          
    603000   282.01381     -1370.7095      300          
    604000   321.14964     -1349.3646      300          
    605000   289.51397     -1372.5938      300          
    606000   330.73041     -1348.9017      300          
    607000   292.38725     -1367.5814      300          
    608000   288.90285     -1366.621       300          
    609000   285.57935     -1368.7903      300          
    610000   305.72964     -1368.5913      300          
    611000   289.15641     -1368.6495      300          
    612000   322.39222     -1358.3689      300          
    613000   288.47412     -1368.9092      300          
    614000   310.51096     -1358.9943      300          
    615000   330.04108     -1359.2246      300          
    616000   264.20022     -1371.9784      300          
    617000   318.33947     -1353.9903      300          
    618000   280.37108     -1367.9895      300          
    619000   314.75311     -1354.3095      300          
    620000   305.24012     -1372.118       300          
    621000   319.25782     -1359.6607      300          
    622000   340.25492     -1348.5467      300          
    623000   305.60639     -1368.6346      300          
    624000   255.47381     -1386.3474      300          
    625000   318.66356     -1354.5029      300          
    626000   303.89472     -1368.0904      300          
    627000   281.19219     -1372.1753      300          
    628000   265.33879     -1363.7372      300          
    629000   270.77211     -1379.2337      300          
    630000   285.23591     -1374.8291      300          
    631000   299.08915     -1362.9158      300          
    632000   342.28512     -1344.4819      300          
    633000   289.93322     -1367.5796      300          
    634000   279.27939     -1377.5069      300          
    635000   295.61185     -1367.2166      300          
    636000   312.42231     -1352.058       300          
    637000   301.43465     -1362.3385      300          
    638000   270.72078     -1371.9594      300          
    639000   342.86988     -1351.0161      300          
    640000   288.84375     -1363.5002      300          
    641000   312.95722     -1360.5742      300          
    642000   295.78299     -1361.4458      300          
    643000   296.64835     -1366.0422      300          
    644000   326.40242     -1360.0298      300          
    645000   274.83779     -1378.598       300          
    646000   363.23389     -1346.6594      300          
    647000   303.92825     -1363.5573      300          
    648000   325.32304     -1361.699       300          
    649000   342.08693     -1346.9406      300          
    650000   280.54162     -1374.8285      300          
    651000   312.74134     -1361.4793      300          
    652000   295.48975     -1358.8681      300          
    653000   306.67207     -1356.5286      300          
    654000   303.54915     -1358.6908      300          
    655000   326.9635      -1359.7038      300          
    656000   290.03422     -1370.2052      300          
    657000   279.59131     -1372.3393      300          
    658000   314.23485     -1350.7812      300          
    659000   327.34402     -1362.3691      300          
    660000   301.24137     -1369.0932      300          
    661000   292.74923     -1357.1911      300          
    662000   310.43739     -1352.7344      300          
    663000   274.24925     -1382.0161      300          
    664000   286.32842     -1364.885       300          
    665000   336.68351     -1341.0885      300          
    666000   276.2634      -1374.9357      300          
    667000   275.0922      -1368.8931      300          
    668000   316.86866     -1356.1276      300          
    669000   293.52337     -1369.3108      300          
    670000   292.08853     -1371.2971      300          
    671000   324.65213     -1353.8835      300          
    672000   277.44635     -1373.5344      300          
    673000   291.63214     -1357.4867      300          
    674000   287.29829     -1371.1011      300          
    675000   304.26131     -1362.77        300          
    676000   289.06364     -1370.0361      300          
    677000   265.0046      -1372.0405      300          
    678000   334.04507     -1354.4348      300          
    679000   296.8436      -1368.262       300          
    680000   317.97681     -1363.8429      300          
    681000   327.2333      -1344.6402      300          
    682000   268.37134     -1381.0156      300          
    683000   283.46256     -1370.4161      300          
    684000   293.92444     -1362.9912      300          
    685000   360.47985     -1334.1557      300          
    686000   312.76805     -1369.1084      300          
    687000   297.83454     -1373.9063      300          
    688000   318.01581     -1355.04        300          
    689000   340.38379     -1345.4926      300          
    690000   282.69105     -1370.3168      300          
    691000   327.35302     -1354.4414      300          
    692000   316.60585     -1351.9567      300          
    693000   312.85823     -1360.2804      300          
    694000   265.07793     -1383.1314      300          
    695000   313.63789     -1355.686       300          
    696000   278.67865     -1376.1537      300          
    697000   295.98405     -1367.2015      300          
    698000   280.29515     -1372.1708      300          
    699000   339.74865     -1349.2985      300          
    700000   309.59393     -1361.7803      300          
    701000   257.80572     -1381.7828      300          
    702000   312.89141     -1358.4306      300          
    703000   326.51429     -1356.6146      300          
    704000   284.16055     -1372.9815      300          
    705000   302.3413      -1358.7211      300          
    706000   299.20906     -1362.2335      300          
    707000   283.32526     -1366.76        300          
    708000   298.04711     -1360.8626      300          
    709000   347.278       -1356.3594      300          
    710000   305.62194     -1372.5863      300          
    711000   301.56992     -1366.9192      300          
    712000   298.55827     -1365.0452      300          
    713000   268.01262     -1371.1444      300          
    714000   344.86909     -1347.3027      300          
    715000   265.95858     -1375.5531      300          
    716000   314.75564     -1354.6019      300          
    717000   333.62177     -1357.1997      300          
    718000   275.06072     -1382.936       300          
    719000   327.36092     -1358.7696      300          
    720000   270.86468     -1376.3231      300          
    721000   273.74659     -1364.7166      300          
    722000   318.63836     -1353.0962      300          
    723000   341.04795     -1351.7241      300          
    724000   290.70739     -1360.0159      300          
    725000   296.75173     -1363.5354      300          
    726000   292.91027     -1365.9096      300          
    727000   347.32781     -1356.3739      300          
    728000   286.3826      -1373.6243      300          
    729000   319.28822     -1352.0804      300          
    730000   318.52633     -1364.2958      300          
    731000   266.61023     -1377.6972      300          
    732000   338.48122     -1345.0754      300          
    733000   282.64095     -1373.9794      300          
    734000   293.72286     -1362.1829      300          
    735000   313.0067      -1362.3499      300          
    736000   343.61743     -1343.7399      300          
    737000   279.64315     -1377.819       300          
    738000   273.37241     -1364.5393      300          
    739000   285.87271     -1377.2104      300          
    740000   294.74589     -1359.1165      300          
    741000   364.11541     -1350.0242      300          
    742000   288.99668     -1367.8071      300          
    743000   330.72056     -1359.0971      300          
    744000   287.838       -1369.5373      300          
    745000   272.9         -1377.8681      300          
    746000   353.56971     -1348.5889      300          
    747000   296.03003     -1374.1609      300          
    748000   282.99553     -1372.5081      300          
    749000   298.20097     -1364.4837      300          
    750000   267.71042     -1378.7209      300          
    751000   359.59513     -1342.9319      300          
    752000   327.145       -1360.1625      300          
    753000   296.63306     -1361.4792      300          
    754000   329.21616     -1351.9191      300          
    755000   291.61273     -1371.7504      300          
    756000   341.82722     -1346.1718      300          
    757000   328.22232     -1357.2162      300          
    758000   301.15609     -1366.3901      300          
    759000   326.72237     -1362.1804      300          
    760000   261.68248     -1372.9862      300          
    761000   342.54537     -1350.2745      300          
    762000   304.76604     -1356.6735      300          
    763000   324.72384     -1362.9761      300          
    764000   280.0059      -1370.2586      300          
    765000   345.13755     -1348.1043      300          
    766000   306.34968     -1370.2107      300          
    767000   288.36099     -1373.3478      300          
    768000   320.63304     -1356.0965      300          
    769000   310.53199     -1364.9491      300          
    770000   281.71999     -1379.9836      300          
    771000   280.3138      -1377.468       300          
    772000   338.44432     -1354.3125      300          
    773000   342.28354     -1352.4647      300          
    774000   344.85361     -1360.2004      300          
    775000   315.41894     -1366.0242      300          
    776000   306.96267     -1367.3616      300          
    777000   306.19518     -1372.2403      300          
    778000   348.24233     -1349.6482      300          
    779000   263.52869     -1387.9233      300          
    780000   296.16892     -1371.3382      300          
    781000   323.14655     -1355.5757      300          
    782000   303.86013     -1368.4352      300          
    783000   307.81494     -1358.9023      300          
    784000   319.88646     -1362.8646      300          
    785000   248.13692     -1383.9056      300          
    786000   335.27901     -1348.0135      300          
    787000   321.78802     -1355.3572      300          
    788000   303.42728     -1374.6803      300          
    789000   316.60364     -1358.8493      300          
    790000   317.25821     -1361.7604      300          
    791000   350.14495     -1344.3719      300          
    792000   317.76179     -1358.2972      300          
    793000   328.40279     -1361.8118      300          
    794000   286.50728     -1375.211       300          
    795000   327.50123     -1359.7487      300          
    796000   335.33953     -1350.6505      300          
    797000   283.80786     -1363.5796      300          
    798000   288.21167     -1363.7436      300          
    799000   357.15875     -1347.6733      300          
    800000   255.60919     -1389.3728      301          
    801000   273.5075      -1391.9176      302          
    802000   273.95572     -1396.1222      302          
    803000   296.13839     -1386.5738      302          
    804000   262.61715     -1399.7131      302          
    805000   287.88177     -1386.3572      302          
    806000   299.5503      -1388.6208      302          
    807000   317.94417     -1376.8846      302          
    808000   265.20431     -1389.4948      302          
    809000   326.87471     -1375.2209      302          
    810000   278.80125     -1394.5077      302          
    811000   315.29771     -1376.5446      302          
    812000   320.28808     -1379.8908      302          
    813000   281.72094     -1396.1869      302          
    814000   293.78448     -1393.9114      302          
    815000   306.48955     -1373.1732      302          
    816000   327.22853     -1373.3457      302          
    817000   311.08457     -1380.9806      302          
    818000   327.25451     -1376.2747      302          
    819000   297.52255     -1395.1842      302          
    820000   283.72323     -1395.4265      302          
    821000   291.7125      -1380.3873      302          
    822000   318.72454     -1381.3332      302          
    823000   279.25222     -1390.5892      302          
    824000   306.63042     -1382.499       302          
    825000   275.00635     -1398.8828      302          
    826000   310.66703     -1373.7257      302          
    827000   303.88999     -1380.7607      302          
    828000   254.83023     -1404.0171      302          
    829000   273.90286     -1396.4798      302          
    830000   277.7304      -1395.0754      302          
    831000   275.44561     -1394.627       302          
    832000   331.92298     -1374.1704      302          
    833000   329.50183     -1375.1084      302          
    834000   281.65192     -1385.0919      302          
    835000   292.51968     -1397.9962      302          
    836000   324.38865     -1379.8388      302          
    837000   302.39714     -1392.1019      302          
    838000   279.48567     -1391.1815      302          
    839000   341.39662     -1366.5411      302          
    840000   315.6692      -1381.7278      302          
    841000   312.76909     -1370.7499      302          
    842000   316.36094     -1380.1747      302          
    843000   302.96708     -1387.2403      302          
    844000   330.6462      -1371.2118      302          
    845000   304.34351     -1387.828       302          
    846000   358.21728     -1363.714       302          
    847000   303.33046     -1387.7885      302          
    848000   313.00784     -1389.0289      302          
    849000   307.8152      -1384.2313      302          
    850000   345.95096     -1370.7384      302          
    851000   277.40839     -1398.3259      302          
    852000   281.89654     -1391.0867      302          
    853000   328.25056     -1375.2011      302          
    854000   289.21559     -1391.8477      302          
    855000   333.81898     -1368.8678      302          
    856000   288.72835     -1397.6158      302          
    857000   306.03807     -1381.59        302          
    858000   284.12498     -1391.5072      302          
    859000   322.85141     -1369.5647      302          
    860000   271.66364     -1396.9374      302          
    861000   309.53249     -1379.6606      302          
    862000   270.84113     -1396.1353      302          
    863000   316.33773     -1377.0732      302          
    864000   297.34265     -1387.3765      302          
    865000   305.4403      -1376.2496      302          
    866000   293.87544     -1385.3702      302          
    867000   286.65844     -1393.8403      302          
    868000   323.78815     -1373.4895      302          
    869000   273.40242     -1398.0917      302          
    870000   258.46901     -1398.9349      302          
    871000   322.07062     -1376.6515      302          
    872000   284.54764     -1395.4506      302          
    873000   335.08889     -1366.8503      302          
    874000   278.20595     -1394.5254      302          
    875000   279.35809     -1391.66        302          
    876000   265.85993     -1394.6892      302          
    877000   302.94031     -1385.5314      302          
    878000   308.76167     -1377.3496      302          
    879000   269.43358     -1400.873       302          
    880000   318.8063      -1376.6248      302          
    881000   312.28453     -1374.6511      302          
    882000   354.38749     -1368.1281      302          
    883000   298.37016     -1384.1591      302          
    884000   319.17589     -1380.019       302          
    885000   282.82847     -1395.697       302          
    886000   292.51897     -1392.9924      302          
    887000   288.02435     -1392.8382      302          
    888000   320.46921     -1377.5331      302          
    889000   331.89518     -1374.3344      302          
    890000   285.67852     -1386.8488      302          
    891000   296.80598     -1388.0674      302          
    892000   335.98355     -1369.9811      302          
    893000   281.09249     -1399.8972      302          
    894000   336.14558     -1367.6176      302          
    895000   291.84459     -1388.0298      302          
    896000   305.32332     -1389.088       302          
    897000   279.95101     -1395.4506      302          
    898000   305.48228     -1383.0981      302          
    899000   349.92527     -1371.5004      302          
    900000   306.39093     -1388.0784      302          
    901000   293.43234     -1389.0489      302          
    902000   281.49429     -1377.9464      302          
    903000   313.60376     -1377.1302      302          
    904000   274.10772     -1393.0882      302          
    905000   300.52833     -1383.9176      302          
    906000   278.09061     -1398.4291      302          
    907000   286.38287     -1392.3848      302          
    908000   322.58608     -1370.2422      302          
    909000   292.11373     -1394.132       302          
    910000   307.68223     -1382.3605      302          
    911000   281.80623     -1392.1714      302          
    912000   291.89454     -1392.668       302          
    913000   277.23306     -1386.1044      302          
    914000   328.72153     -1377.4691      302          
    915000   325.3121      -1378.296       302          
    916000   294.65072     -1381.0885      302          
    917000   362.92084     -1365.0655      302          
    918000   295.97074     -1391.8983      302          
    919000   299.98796     -1385.789       302          
    920000   317.53663     -1378.0136      302          
    921000   337.99879     -1376.1218      302          
    922000   280.87233     -1392.92        302          
    923000   335.20291     -1375.1082      302          
    924000   336.15853     -1366.5084      302          
    925000   326.28242     -1382.4449      302          
    926000   295.83656     -1391.5468      302          
    927000   332.5686      -1377.6678      302          
    928000   333.23793     -1370.7019      302          
    929000   297.2361      -1389.6015      302          
    930000   316.88142     -1377.3243      302          
    931000   265.98089     -1404.0477      302          
    932000   279.33024     -1391.6411      302          
    933000   303.43371     -1385.1676      302          
    934000   296.94771     -1386.7442      302          
    935000   280.87832     -1398.585       302          
    936000   305.44138     -1379.8438      302          
    937000   281.56349     -1397.1192      302          
    938000   298.60234     -1379.355       302          
    939000   306.32702     -1396.4593      302          
    940000   301.77796     -1389.8086      302          
    941000   336.13877     -1370.9178      302          
    942000   262.59337     -1401.5655      302          
    943000   307.40755     -1379.2243      302          
    944000   314.12558     -1380.0614      302          
    945000   299.32429     -1381.6014      302          
    946000   312.97719     -1385.9253      302          
    947000   268.36195     -1400.2129      302          
    948000   319.47165     -1368.3611      302          
    949000   371.06443     -1358.499       302          
    950000   273.39175     -1399.8184      302          
    951000   326.78473     -1379.8512      302          
    952000   305.40903     -1389.0058      302          
    953000   290.10941     -1383.9767      302          
    954000   329.45724     -1373.4775      302          
    955000   296.82766     -1384.2405      302          
    956000   294.51422     -1388.5258      302          
    957000   319.36709     -1379.8661      302          
    958000   298.04042     -1391.8712      302          
    959000   355.39292     -1368.5085      302          
    960000   267.19499     -1404.9629      302          
    961000   321.69054     -1370.915       302          
    962000   292.35932     -1392.2904      302          
    963000   261.65157     -1401.759       302          
    964000   350.22582     -1369.1653      302          
    965000   287.00544     -1389.9057      302          
    966000   338.88793     -1373.7508      302          
    967000   308.35596     -1391.0487      302          
    968000   274.81622     -1395.9814      302          
    969000   301.75582     -1379.6357      302          
    970000   277.43538     -1400.0969      302          
    971000   322.97072     -1365.9053      302          
    972000   306.08452     -1390.0106      302          
    973000   294.04952     -1378.7277      302          
    974000   306.2582      -1386.7369      302          
    975000   284.92801     -1391.9847      302          
    976000   319.44283     -1372.8487      302          
    977000   292.21674     -1392.7922      302          
    978000   292.20611     -1389.1868      302          
    979000   282.9199      -1385.9882      302          
    980000   323.30286     -1381.0624      302          
    981000   272.69125     -1391.8347      302          
    982000   285.1276      -1386.7876      302          
    983000   323.65417     -1379.8761      302          
    984000   268.77214     -1402.9006      302          
    985000   312.27173     -1376.7846      302          
    986000   336.94074     -1371.2301      302          
    987000   276.80488     -1402.5625      302          
    988000   333.27251     -1377.9259      302          
    989000   305.68218     -1384.0562      302          
    990000   283.49443     -1390.4484      302          
    991000   304.60935     -1386.6563      302          
    992000   370.89861     -1355.5673      302          
    993000   274.67264     -1387.569       302          
    994000   285.72752     -1383.0287      302          
    995000   314.26699     -1380.9306      302          
    996000   266.90314     -1400.928       302          
    997000   323.8936      -1369.2965      302          
    998000   305.94135     -1391.7103      302          
    999000   342.67732     -1373.9035      302          
   1000000   311.74621     -1387.2838      302          
   1001000   317.81862     -1371.4807      302          
   1002000   281.35793     -1398.2364      302          
   1003000   284.40302     -1387.3798      302          
   1004000   344.9339      -1376.3229      302          
   1005000   268.46498     -1401.454       302          
   1006000   278.69134     -1394.1876      302          
   1007000   318.32134     -1377.4849      302          
   1008000   298.65946     -1372.4865      302          
   1009000   313.33518     -1381.7667      302          
   1010000   294.87301     -1389.5372      302          
   1011000   318.03397     -1374.934       302          
   1012000   322.71817     -1384.6052      302          
   1013000   328.1793      -1367.2766      302          
   1014000   306.77288     -1385.4061      302          
   1015000   308.92999     -1390.5519      302          
   1016000   328.10087     -1388.6859      302          
   1017000   328.04675     -1377.3626      302          
   1018000   313.02483     -1386.4615      302          
   1019000   294.41447     -1391.9549      302          
   1020000   302.10059     -1390.7921      302          
   1021000   281.1791      -1389.876       302          
   1022000   287.09961     -1389.8222      302          
   1023000   303.57027     -1382.2681      302          
   1024000   342.08839     -1363.9948      302          
   1025000   313.41235     -1388.3955      302          
   1026000   343.38057     -1366.3019      302          
   1027000   283.06724     -1399.1522      302          
   1028000   320.50668     -1379.4167      302          
   1029000   316.25866     -1381.5796      302          
   1030000   259.55091     -1405.6332      302          
   1031000   320.29445     -1379.4679      302          
   1032000   271.21136     -1403.8785      302          
   1033000   348.19876     -1368.3634      302          
   1034000   300.23685     -1394.0556      302          
   1035000   292.42534     -1375.9277      302          
   1036000   341.12743     -1369.8784      302          
   1037000   324.53124     -1379.8747      302          
   1038000   321.62418     -1374.406       302          
   1039000   268.29029     -1402.2621      302          
   1040000   334.07375     -1371.5883      302          
   1041000   283.36942     -1397.782       302          
   1042000   286.96577     -1385.3521      302          
   1043000   337.46107     -1379.5328      302          
   1044000   327.71747     -1371.011       302          
   1045000   245.82137     -1402.8945      302          
   1046000   324.97152     -1377.8925      302          
   1047000   300.0381      -1386.8345      302          
   1048000   317.3227      -1379.9923      302          
   1049000   301.57442     -1391.1668      302          
   1050000   335.10745     -1372.0072      302          
   1051000   264.25927     -1403.3952      302          
   1052000   314.16478     -1373.1558      302          
   1053000   299.66457     -1387.2846      302          
   1054000   285.19628     -1396.1695      302          
   1055000   298.17229     -1381.5029      302          
   1056000   278.88182     -1392.234       302          
   1057000   295.07873     -1390.6156      302          
   1058000   331.89565     -1375.2455      302          
   1059000   287.44609     -1398.1718      302          
   1060000   299.93558     -1381.1065      302          
   1061000   332.70816     -1379.9561      302          
   1062000   314.19553     -1388.1419      302          
   1063000   302.63607     -1382.1104      302          
   1064000   329.56672     -1377.8413      302          
   1065000   295.5899      -1380.3308      302          
   1066000   308.73816     -1387.7741      302          
   1067000   300.67918     -1390.6516      302          
   1068000   285.72028     -1387.6667      302          
   1069000   311.81322     -1374.4567      302          
   1070000   353.99799     -1368.4091      302          
   1071000   304.65251     -1380.5847      302          
   1072000   293.35885     -1386.643       302          
   1073000   333.75725     -1377.2764      302          
   1074000   343.7488      -1378.0787      302          
   1075000   307.08621     -1380.6557      302          
   1076000   283.21896     -1382.4373      302          
   1077000   301.88196     -1386.1437      302          
   1078000   313.97693     -1379.1277      302          
   1079000   278.06988     -1395.4297      302          
   1080000   329.09162     -1373.2282      302          
   1081000   306.34975     -1375.0266      302          
   1082000   339.03887     -1369.2322      302          
   1083000   327.79032     -1385.1992      302          
   1084000   272.79937     -1407.0677      302          
   1085000   274.35215     -1387.3194      302          
   1086000   320.88336     -1372.2344      302          
   1087000   301.05745     -1392.4735      302          
   1088000   316.47256     -1385.1597      302          
   1089000   298.63007     -1384.2225      302          
   1090000   260.0259      -1404.1633      302          
   1091000   287.94247     -1381.3217      302          
   1092000   306.60745     -1383.6815      302          
   1093000   293.20011     -1390.7919      302          
   1094000   303.54976     -1394.5157      302          
   1095000   268.93923     -1398.2713      302          
   1096000   291.59686     -1384.3658      302          
   1097000   288.28565     -1387.9813      302          
   1098000   309.69649     -1380.399       302          
   1099000   285.90412     -1384.1335      302          
   1100000   314.91247     -1381.8633      302          
   1101000   290.7482      -1388.0064      302          
   1102000   307.68523     -1369.5787      302          
   1103000   280.83333     -1397.357       302          
   1104000   273.21108     -1398.5658      302          
   1105000   351.92147     -1355.6538      302          
   1106000   278.13193     -1395.4785      302          
   1107000   320.86599     -1386.2796      302          
   1108000   303.901       -1391.2189      302          
   1109000   286.55603     -1379.9462      302          
   1110000   291.25094     -1393.9211      302          
   1111000   351.66953     -1367.2003      302          
   1112000   305.32146     -1382.2669      302          
   1113000   281.5217      -1396.9782      302          
   1114000   351.30058     -1364.2679      302          
   1115000   302.87288     -1389.2237      302          
   1116000   284.91072     -1400.4886      302          
   1117000   343.16079     -1371.1331      302          
   1118000   301.34675     -1393.7329      302          
   1119000   285.3709      -1388.1306      302          
   1120000   346.75598     -1371.6265      302          
   1121000   298.63988     -1393.416       302          
   1122000   279.943       -1398.7911      302          
   1123000   329.79614     -1378.9255      302          
   1124000   324.96584     -1391.3594      302          
   1125000   286.80571     -1392.759       302          
   1126000   324.86559     -1387.1069      302          
   1127000   308.13912     -1390.3021      302          
   1128000   311.19025     -1384.2903      302          
   1129000   308.40631     -1392.6477      302          
   1130000   275.41888     -1401.681       302          
   1131000   332.85966     -1374.8205      302          
   1132000   282.25201     -1392.8462      302          
   1133000   326.13187     -1387.6397      302          
   1134000   309.08794     -1396.3445      302          
   1135000   309.29583     -1386.7524      302          
   1136000   346.55218     -1365.8143      302          
   1137000   279.3693      -1395.8176      302          
   1138000   302.16731     -1383.0293      302          
   1139000   304.35488     -1395.6447      302          
   1140000   310.45459     -1378.0058      302          
   1141000   276.16851     -1408.0024      302          
   1142000   304.71845     -1385.5766      302          
   1143000   307.62394     -1391.4874      302          
   1144000   310.65924     -1376.2985      302          
   1145000   250.81528     -1406.4028      302          
   1146000   315.84846     -1378.6061      302          
   1147000   327.15028     -1373.133       302          
   1148000   295.00141     -1395.9973      302          
   1149000   317.68404     -1379.047       302          
   1150000   283.58878     -1396.8427      302          
   1151000   344.70603     -1369.8118      302          
   1152000   303.5209      -1393.9873      302          
   1153000   328.37896     -1373.5174      302          
   1154000   297.41706     -1391.769       302          
   1155000   293.51662     -1389.6659      302          
   1156000   312.54299     -1385.8225      302          
   1157000   314.23601     -1379.5637      302          
   1158000   308.64176     -1384.8507      302          
   1159000   335.7401      -1377.9455      302          
   1160000   250.91421     -1409.2747      302          
   1161000   326.85935     -1384.7304      302          
   1162000   274.21412     -1397.8689      302          
   1163000   259.04485     -1403.799       302          
   1164000   303.76624     -1384.4175      302          
   1165000   292.237       -1394.9056      302          
   1166000   336.82488     -1378.2219      302          
   1167000   355.43568     -1373.8975      302          
   1168000   323.40054     -1381.7875      302          
   1169000   239.01731     -1411.1192      302          
   1170000   362.49937     -1368.0168      302          
   1171000   280.47855     -1398.53        302          
   1172000   359.15772     -1361.7269      302          
   1173000   271.14019     -1401.6671      302          
   1174000   318.25974     -1381.3705      302          
   1175000   291.80576     -1391.3607      302          
   1176000   303.65607     -1388.5176      302          
   1177000   309.53115     -1384.1444      302          
   1178000   300.80344     -1388.5353      302          
   1179000   303.5578      -1378.8086      302          
   1180000   298.75712     -1398.7253      302          
   1181000   289.25355     -1389.3974      302          
   1182000   328.74921     -1381.8687      302          
   1183000   305.02817     -1393.0453      302          
   1184000   304.34598     -1377.6194      302          
   1185000   298.12172     -1397.5878      302          
   1186000   317.70846     -1380.4539      302          
   1187000   337.6669      -1369.3484      302          
   1188000   280.52171     -1399.6071      302          
   1189000   304.29766     -1377.3554      302          
   1190000   339.16173     -1385.4108      302          
   1191000   293.86663     -1392.8213      302          
   1192000   293.92405     -1389.318       302          
   1193000   320.57106     -1372.6899      302          
   1194000   281.39661     -1397.7865      302          
   1195000   314.1434      -1391.0386      302          
   1196000   301.12331     -1385.83        302          
   1197000   274.78364     -1405.0618      302          
   1198000   291.20173     -1394.3421      302          
   1199000   346.23603     -1368.4011      302          
   1200000   317.81364     -1385.6464      302          
   1201000   294.9123      -1391.45        302          
   1202000   307.38645     -1389.1347      302          
   1203000   311.86547     -1394.6011      302          
   1204000   285.25841     -1393.8787      302          
   1205000   265.63689     -1411.768       302          
   1206000   332.63562     -1374.9914      302          
   1207000   321.5524      -1388.7669      302          
   1208000   331.65608     -1377.2447      302          
   1209000   315.87441     -1383.6999      302          
   1210000   345.93316     -1379.3074      302          
   1211000   300.9606      -1394.8146      302          
   1212000   282.08947     -1391.4225      302          
   1213000   295.02933     -1394.8048      302          
   1214000   326.92034     -1381.0992      302          
   1215000   260.31693     -1406.1046      302          
   1216000   312.42319     -1380.6567      302          
   1217000   302.20221     -1386.8162      302          
   1218000   305.8953      -1393.3289      302          
   1219000   270.96761     -1391.8971      302          
   1220000   270.8704      -1403.7295      302          
   1221000   311.59991     -1384.7546      302          
   1222000   286.92287     -1399.5306      302          
   1223000   315.71113     -1383.1205      302          
   1224000   277.45484     -1402.4539      302          
   1225000   306.27266     -1388.4148      302          
   1226000   311.46502     -1386.0938      302          
   1227000   275.85476     -1395.4228      302          
   1228000   329.54341     -1369.3856      302          
   1229000   276.80514     -1401.9376      302          
   1230000   326.02812     -1381.0998      302          
   1231000   305.14701     -1391.3095      302          
   1232000   321.67028     -1386.97        302          
   1233000   275.32948     -1397.4159      302          
   1234000   335.18598     -1371.6325      302          
   1235000   269.92201     -1402.4452      302          
   1236000   303.30985     -1383.4073      302          
   1237000   313.89849     -1379.2865      302          
   1238000   291.63638     -1396.6938      302          
   1239000   283.92692     -1385.2045      302          
   1240000   296.44395     -1389.9877      302          
   1241000   322.16461     -1375.456       302          
   1242000   315.52825     -1388.3689      302          
   1243000   296.46978     -1383.1027      302          
   1244000   321.47062     -1369.0821      302          
   1245000   287.30928     -1397.5964      302          
   1246000   291.50381     -1392.1913      302          
   1247000   282.13797     -1390.4799      302          
   1248000   292.86163     -1395.3743      302          
   1249000   289.1793      -1395.0845      302          
   1250000   314.56336     -1386.4232      302          
   1251000   266.69538     -1399.9613      302          
   1252000   276.01677     -1394.9346      302          
   1253000   348.63526     -1369.7831      302          
   1254000   289.8466      -1393.0856      302          
   1255000   273.39617     -1389.7017      302          
   1256000   332.92464     -1373.5988      302          
   1257000   289.04059     -1396.286       302          
   1258000   285.24004     -1398.7552      302          
   1259000   340.49633     -1373.5436      302          
   1260000   342.24781     -1374.6635      302          
   1261000   295.56757     -1395.8038      302          
   1262000   269.48706     -1399.3008      302          
   1263000   340.27974     -1366.0322      302          
   1264000   303.54484     -1387.3329      302          
   1265000   305.31012     -1384.8713      302          
   1266000   333.32373     -1378.2269      302          
   1267000   278.60964     -1395.0662      302          
   1268000   254.3304      -1403.8098      302          
   1269000   304.04005     -1376.4773      302          
   1270000   277.59593     -1405.4872      302          
   1271000   308.0246      -1391.1466      302          
   1272000   313.81215     -1390.9463      302          
   1273000   324.75244     -1381.6077      302          
   1274000   315.86044     -1387.4166      302          
   1275000   322.06123     -1387.1322      302          
   1276000   309.05267     -1383.1874      302          
   1277000   265.47157     -1402.2651      302          
   1278000   288.43202     -1384.8225      302          
   1279000   322.81702     -1378.1095      302          
   1280000   285.5257      -1398.9219      302          
   1281000   292.2847      -1388.9695      302          
   1282000   327.62692     -1375.016       302          
   1283000   269.09818     -1403.7338      302          
   1284000   321.73194     -1378.7708      302          
   1285000   288.98709     -1401.0792      302          
   1286000   317.54202     -1381.6888      302          
   1287000   330.50537     -1381.11        302          
   1288000   291.70775     -1397.2814      302          
   1289000   291.11343     -1400.353       302          
   1290000   268.32571     -1398.7069      302          
   1291000   295.97461     -1386.5438      302          
   1292000   314.79182     -1381.3747      302          
   1293000   260.57229     -1405.0913      302          
   1294000   300.12757     -1383.8182      302          
   1295000   302.42297     -1391.0245      302          
   1296000   338.62176     -1373.0365      302          
   1297000   297.36917     -1397.6793      302          
   1298000   322.03482     -1384.064       302          
   1299000   318.32074     -1386.9188      302          
   1300000   281.24397     -1398.3504      302          
   1301000   306.01536     -1391.0666      302          
   1302000   303.77169     -1379.2626      302          
   1303000   351.74084     -1363.9478      302          
   1304000   289.36577     -1401.3774      302          
   1305000   292.43923     -1383.7972      302          
   1306000   295.13092     -1396.8529      302          
   1307000   270.957       -1404.055       302          
   1308000   347.40579     -1376.627       302          
   1309000   267.38232     -1406.0965      302          
   1310000   274.34547     -1403.0358      302          
   1311000   317.55184     -1374.2908      302          
   1312000   282.04237     -1405.9458      302          
   1313000   347.61782     -1371.7618      302          
   1314000   303.1551      -1390.5611      302          
   1315000   298.40384     -1391.373       302          
   1316000   319.02698     -1383.9368      302          
   1317000   330.75706     -1378.463       302          
   1318000   292.80199     -1393.0169      302          
   1319000   327.93913     -1382.988       302          
   1320000   296.80963     -1395.4405      302          
   1321000   297.29256     -1378.8204      302          
   1322000   277.81781     -1398.3598      302          
   1323000   276.32612     -1391.8639      302          
   1324000   278.06839     -1395.2886      302          
   1325000   277.07668     -1398.6181      302          
   1326000   290.23496     -1384.6518      302          
   1327000   324.10025     -1385.888       302          
   1328000   286.2163      -1406.2039      302          
   1329000   276.90269     -1397.6663      302          
   1330000   318.03008     -1374.2693      302          
   1331000   316.84464     -1386.8332      302          
   1332000   283.68333     -1397.1311      302          
   1333000   334.44461     -1382.8845      302          
   1334000   300.82566     -1384.0372      302          
   1335000   313.44275     -1385.303       302          
   1336000   306.45328     -1386.819       302          
   1337000   320.4664      -1384.1779      302          
   1338000   297.66013     -1399.2895      302          
   1339000   333.76451     -1376.4694      302          
   1340000   280.69534     -1398.6822      302          
   1341000   257.15977     -1400.6669      302          
   1342000   292.463       -1393.9388      302          
   1343000   307.73582     -1387.256       302          
   1344000   304.96674     -1390.1176      302          
   1345000   322.91906     -1382.0988      302          
   1346000   278.59067     -1394.7168      302          
   1347000   325.37281     -1391.7323      302          
   1348000   293.56971     -1383.8014      302          
   1349000   298.46971     -1392.9656      302          
   1350000   321.81417     -1382.6231      302          
   1351000   301.59598     -1398.1181      302          
   1352000   277.99752     -1395.6676      302          
   1353000   325.16152     -1376.9612      302          
   1354000   306.52613     -1387.6208      302          
   1355000   358.36913     -1365.8474      302          
   1356000   333.04948     -1379.6432      302          
   1357000   331.66366     -1372.5461      302          
   1358000   294.53444     -1387.095       302          
   1359000   288.68736     -1401.9934      302          
   1360000   278.09251     -1390.8586      302          
   1361000   299.25363     -1385.9211      302          
   1362000   307.09931     -1392.076       302          
   1363000   287.34971     -1401.2213      302          
   1364000   300.85777     -1386.1725      302          
   1365000   340.91585     -1379.2025      302          
   1366000   336.66938     -1370.3629      302          
   1367000   344.13905     -1374.1255      302          
   1368000   270.85023     -1408.4108      302          
   1369000   330.05544     -1381.5267      302          
   1370000   280.27497     -1396.912       302          
   1371000   297.50792     -1401.2985      302          
   1372000   285.80037     -1392.4314      302          
   1373000   295.45238     -1387.8392      302          
   1374000   311.19455     -1394.6476      302          
   1375000   325.33353     -1387.8374      302          
   1376000   311.5929      -1384.8197      302          
   1377000   295.95641     -1386.4795      302          
   1378000   306.70783     -1388.341       302          
   1379000   287.67626     -1391.8625      302          
   1380000   310.97709     -1390.3516      302          
   1381000   252.56171     -1409.8819      302          
   1382000   316.64443     -1383.9107      302          
   1383000   282.19751     -1395.1481      302          
   1384000   303.37791     -1390.1796      302          
   1385000   320.32995     -1382.3586      302          
   1386000   299.72281     -1389.6142      302          
   1387000   287.106       -1400.0994      302          
   1388000   330.66142     -1374.1143      302          
   1389000   267.64731     -1392.2113      302          
   1390000   294.78729     -1395.1004      302          
   1391000   307.64233     -1389.638       302          
   1392000   291.92497     -1393.9928      302          
   1393000   319.62703     -1373.5427      302          
   1394000   287.62868     -1388.8854      302          
   1395000   262.18056     -1402.7494      302          
   1396000   299.01534     -1391.7804      302          
   1397000   319.05071     -1387.2342      302          
   1398000   293.42072     -1389.1857      302          
   1399000   277.54774     -1408.2552      302          
   1400000   294.52671     -1388.9572      302          
   1401000   321.18047     -1385.1965      302          
   1402000   322.23152     -1373.6298      302          
   1403000   300.73227     -1394.057       302          
   1404000   322.30874     -1388.0934      302          
   1405000   314.89264     -1382.1761      302          
   1406000   267.26369     -1400.1032      302          
   1407000   335.89892     -1374.6231      302          
   1408000   295.95194     -1397.6224      302          
   1409000   257.22372     -1401.9855      302          
   1410000   309.2609      -1382.669       302          
   1411000   332.74665     -1381.8458      302          
   1412000   297.33581     -1394.6321      302          
   1413000   324.58929     -1375.408       302          
   1414000   329.39809     -1383.8814      302          
   1415000   288.30354     -1398.2547      302          
   1416000   280.82458     -1393.5054      302          
   1417000   318.10507     -1382.6043      302          
   1418000   279.38069     -1404.2187      302          
   1419000   307.22948     -1388.4172      302          
   1420000   285.50773     -1395.099       302          
   1421000   283.53271     -1382.6936      302          
   1422000   324.7583      -1387.5052      302          
   1423000   287.45618     -1395.7588      302          
   1424000   315.60625     -1378.5691      302          
   1425000   296.78164     -1395.5611      302          
   1426000   281.87966     -1392.7571      302          
   1427000   293.94626     -1381.3365      302          
   1428000   316.34272     -1392.7008      302          
   1429000   273.48339     -1395.4772      302          
   1430000   334.5038      -1381.8444      302          
   1431000   312.71538     -1387.1377      302          
   1432000   346.60908     -1366.7595      302          
   1433000   304.90786     -1383.6373      302          
   1434000   290.96946     -1393.2108      302          
   1435000   306.27425     -1392.2354      302          
   1436000   334.28885     -1371.8734      302          
   1437000   294.37457     -1381.5386      302          
   1438000   370.76021     -1376.0618      302          
   1439000   302.51389     -1384.091       302          
   1440000   292.8019      -1392.3001      302          
   1441000   305.68732     -1394.7079      303          
   1442000   331.80041     -1391.0702      303          
   1443000   263.93274     -1414.7946      303          
   1444000   301.14178     -1401.7158      303          
   1445000   321.88711     -1394.5598      303          
   1446000   318.23427     -1396.9313      303          
   1447000   314.61166     -1393.4054      303          
   1448000   302.51497     -1395.1995      303          
   1449000   324.85756     -1386.6267      303          
   1450000   331.78347     -1390.1232      303          
   1451000   279.08967     -1410.8632      303          
   1452000   306.84721     -1395.7409      303          
   1453000   319.48155     -1385.3366      303          
   1454000   250.54865     -1418.7592      303          
   1455000   302.23004     -1397.0578      303          
   1456000   276.00326     -1403.1722      303          
   1457000   300.90258     -1393.8789      303          
   1458000   330.48665     -1389.7332      303          
   1459000   283.02314     -1407.8532      303          
   1460000   322.35597     -1397.6486      303          
   1461000   261.64208     -1419.3562      303          
   1462000   350.06185     -1374.1127      303          
   1463000   293.51012     -1408.2501      303          
   1464000   282.89744     -1403.3481      303          
   1465000   277.13455     -1404.6684      303          
   1466000   328.50036     -1389.4366      303          
   1467000   296.60098     -1401.6097      303          
   1468000   278.46627     -1405.9598      303          
   1469000   322.99911     -1383.0504      303          
   1470000   340.57237     -1397.2638      303          
   1471000   307.0299      -1403.755       303          
   1472000   338.7061      -1386.3321      303          
   1473000   292.85872     -1398.0969      303          
   1474000   273.37672     -1411.5094      303          
   1475000   355.20496     -1376.3527      303          
   1476000   313.33633     -1400.3908      303          
   1477000   307.13632     -1388.8269      303          
   1478000   315.28517     -1399.6053      303          
   1479000   287.55676     -1404.052       303          
   1480000   287.64423     -1396.4434      303          
   1481000   315.19398     -1392.3944      303          
   1482000   279.02988     -1408.635       303          
   1483000   333.76519     -1382.2661      303          
   1484000   336.40373     -1386.6166      303          
   1485000   273.58824     -1402.4129      303          
   1486000   311.14132     -1394.1961      303          
   1487000   277.82387     -1413.1697      303          
   1488000   280.6707      -1398.8449      303          
   1489000   342.94987     -1384.436       303          
   1490000   274.19771     -1417.8575      303          
   1491000   339.19491     -1378.5433      303          
   1492000   318.97747     -1393.8355      303          
   1493000   309.56477     -1399.1825      303          
   1494000   296.18803     -1405.5185      303          
   1495000   249.45489     -1420.5196      303          
   1496000   317.9451      -1379.0331      303          
   1497000   284.76708     -1409.4712      303          
   1498000   299.32367     -1393.1347      303          
   1499000   306.08982     -1392.4054      303          
   1500000   309.27834     -1399.1847      303          
   1501000   294.68931     -1403.7864      303          
   1502000   281.31725     -1400.5468      303          
   1503000   315.09199     -1390.995       303          
   1504000   297.7612      -1404.4006      303          
   1505000   281.35972     -1400.0069      303          
   1506000   321.66747     -1385.583       303          
   1507000   314.52427     -1395.3341      303          
   1508000   310.06638     -1392.2776      303          
   1509000   274.75638     -1413.0695      304          
   1510000   311.08653     -1393.4776      304          
   1511000   335.08978     -1404.7626      304          
   1512000   302.53771     -1411.0288      304          
   1513000   316.4278      -1412.0118      304          
   1514000   304.27572     -1396.8959      304          
   1515000   286.51363     -1418.6062      304          
   1516000   330.10644     -1384.3567      304          
   1517000   296.65388     -1410.8143      304          
   1518000   292.69715     -1410.5999      304          
   1519000   344.02704     -1390.0628      304          
   1520000   282.15367     -1419.8788      304          
   1521000   316.31182     -1395.8858      304          
   1522000   327.67524     -1401.9196      304          
   1523000   308.65173     -1400.4384      304          
   1524000   327.88444     -1401.5482      304          
   1525000   295.68804     -1412.2596      304          
   1526000   280.95647     -1413.9644      304          
   1527000   297.41077     -1408.3343      304          
   1528000   305.7075      -1387.8825      303          
   1529000   303.03703     -1397.6242      303          
   1530000   312.06028     -1389.3485      303          
   1531000   285.71327     -1399.5863      303          
   1532000   355.49605     -1380.9827      303          
   1533000   299.78888     -1398.9223      303          
   1534000   279.69468     -1404.0723      303          
   1535000   292.07999     -1401.3756      303          
   1536000   267.95328     -1412.8177      303          
   1537000   296.75432     -1402.2941      303          
   1538000   310.37225     -1385.211       303          
   1539000   340.68573     -1387.3678      303          
   1540000   290.14099     -1411.3174      303          
   1541000   325.06466     -1386.0888      303          
   1542000   314.38894     -1391.5255      303          
   1543000   286.17784     -1398.2312      303          
   1544000   294.81434     -1394.9782      303          
   1545000   283.68        -1406.9677      303          
   1546000   327.06781     -1388.3313      303          
   1547000   335.3382      -1383.7134      303          
   1548000   275.47458     -1408.1656      303          
   1549000   277.95372     -1409.116       303          
   1550000   316.6662      -1386.713       303          
   1551000   305.89181     -1397.7351      303          
   1552000   305.40739     -1382.9803      303          
   1553000   275.29575     -1408.7115      303          
   1554000   324.42683     -1388.1737      303          
   1555000   313.60576     -1396.5086      303          
   1556000   307.95133     -1399.1083      303          
   1557000   283.3402      -1404.3586      303          
   1558000   317.14835     -1383.8908      303          
   1559000   293.75931     -1395.1354      303          
   1560000   286.49244     -1400.315       303          
   1561000   306.5374      -1392.0447      303          
   1562000   319.1626      -1387.7367      303          
   1563000   284.94808     -1401.5549      303          
   1564000   292.94988     -1396.8364      303          
   1565000   330.79563     -1379.543       303          
   1566000   313.12448     -1403.5902      303          
   1567000   303.93402     -1393.4547      303          
   1568000   317.81254     -1396.3105      303          
   1569000   331.67638     -1385.4721      303          
   1570000   299.3516      -1391.2409      303          
   1571000   342.54297     -1378.8198      303          
   1572000   313.06007     -1397.1777      303          
   1573000   266.95116     -1412.8508      303          
   1574000   278.53582     -1403.3365      303          
   1575000   322.85801     -1393.6867      303          
   1576000   277.48673     -1401.8653      303          
   1577000   266.40926     -1417.5487      303          
   1578000   336.07105     -1382.8109      303          
   1579000   269.12706     -1409.7417      303          
   1580000   333.79699     -1380.4972      303          
   1581000   287.12016     -1404.2908      303          
   1582000   272.93724     -1408.5028      303          
   1583000   334.43698     -1393.5074      303          
   1584000   254.635       -1416.1841      303          
   1585000   312.539       -1386.2563      303          
   1586000   308.52905     -1394.0163      303          
   1587000   356.87466     -1384.1203      303          
   1588000   288.45061     -1410.5975      303          
   1589000   333.16645     -1385.6699      303          
   1590000   282.28346     -1404.9023      303          
   1591000   282.6687      -1405.9188      303          
   1592000   294.74353     -1387.3736      303          
   1593000   301.12977     -1399.0596      303          
   1594000   277.08072     -1406.1036      303          
   1595000   287.96274     -1401.7865      303          
   1596000   302.72091     -1401.955       303          
   1597000   296.00333     -1394.1297      303          
   1598000   308.5225      -1393.8692      303          
   1599000   303.08574     -1406.0254      303          
   1600000   300.49411     -1397.2989      303          
   1601000   290.83928     -1404.3222      303          
   1602000   281.10984     -1402.8123      303          
   1603000   346.79132     -1373.3898      303          
   1604000   322.35993     -1388.9875      303          
   1605000   286.24698     -1410.0983      303          
   1606000   304.37203     -1390.3211      303          
   1607000   337.70542     -1381.263       303          
   1608000   291.53787     -1397.3692      303          
   1609000   318.88203     -1395.2548      303          
   1610000   298.87884     -1401.1848      303          
   1611000   277.84201     -1404.0298      303          
   1612000   346.6688      -1389.0197      303          
   1613000   297.18885     -1396.6367      303          
   1614000   299.61003     -1400.0542      303          
   1615000   282.02352     -1403.8583      303          
   1616000   314.03336     -1385.6334      303          
   1617000   345.81459     -1386.6627      303          
   1618000   320.67371     -1391.4452      303          
   1619000   275.39368     -1414.7474      303          
   1620000   332.37456     -1384.4426      303          
   1621000   278.43486     -1407.2388      303          
   1622000   294.91863     -1405.4728      303          
   1623000   304.83847     -1391.6167      303          
   1624000   295.11936     -1402.8222      303          
   1625000   306.16327     -1391.5927      303          
   1626000   280.15487     -1404.2672      303          
   1627000   333.61134     -1381.3943      303          
   1628000   274.32607     -1408.2091      303          
   1629000   314.66976     -1395.6252      303          
   1630000   277.42827     -1399.5955      303          
   1631000   316.35553     -1386.0882      303          
   1632000   315.43086     -1380.6281      303          
   1633000   279.83308     -1407.2071      303          
   1634000   267.76693     -1413.9953      303          
   1635000   288.513       -1404.1757      303          
   1636000   306.38884     -1392.2719      303          
   1637000   362.72459     -1373.6901      303          
   1638000   286.66207     -1398.2619      303          
   1639000   308.3152      -1392.9436      303          
   1640000   291.86297     -1401.9672      303          
   1641000   323.87546     -1390.6275      303          
   1642000   271.40487     -1407.5167      303          
   1643000   339.30689     -1374.2139      303          
   1644000   265.25676     -1403.486       303          
   1645000   349.37023     -1379.9411      303          
   1646000   266.02485     -1415.3427      303          
   1647000   283.11308     -1402.694       303          
   1648000   274.10286     -1409.1284      303          
   1649000   310.25369     -1394.6757      303          
   1650000   297.54915     -1400.363       303          
   1651000   287.81186     -1403.8645      303          
   1652000   285.19154     -1409.6141      303          
   1653000   338.76992     -1389.4106      303          
   1654000   315.99727     -1392.6734      303          
   1655000   301.69335     -1402.6971      303          
   1656000   315.57434     -1392.8006      303          
   1657000   301.22037     -1404.0331      303          
   1658000   299.73759     -1388.1221      303          
   1659000   314.39806     -1399.7816      303          
   1660000   262.57651     -1408.0544      303          
   1661000   325.24917     -1391.8552      303          
   1662000   284.93766     -1408.7951      303          
   1663000   313.10873     -1397.6668      303          
   1664000   336.26839     -1387.8199      303          
   1665000   290.43183     -1393.3398      303          
   1666000   294.28445     -1401.9766      303          
   1667000   309.87971     -1396.1041      303          
   1668000   326.55191     -1380.6725      303          
   1669000   323.43819     -1394.6113      303          
   1670000   298.9652      -1400.6191      303          
   1671000   300.89551     -1400.5962      303          
   1672000   298.16194     -1405.0577      303          
   1673000   290.98347     -1402.138       303          
   1674000   328.3366      -1388.2508      303          
   1675000   290.72074     -1408.0683      303          
   1676000   328.98615     -1386.9083      303          
   1677000   272.82022     -1414.3286      303          
   1678000   360.2764      -1381.2341      303          
   1679000   297.81073     -1403.9247      303          
   1680000   300.54812     -1386.1355      303          
   1681000   342.44037     -1389.7957      303          
   1682000   290.15507     -1402.3418      303          
   1683000   271.05738     -1401.9621      303          
   1684000   300.6356      -1395.1376      303          
   1685000   272.69022     -1411.1334      303          
   1686000   318.02089     -1389.2643      303          
   1687000   309.35842     -1397.7329      303          
   1688000   284.26067     -1401.9554      303          
   1689000   331.21797     -1384.3843      303          
   1690000   292.15005     -1403.1984      303          
   1691000   277.17963     -1407.7145      303          
   1692000   324.90487     -1388.6084      303          
   1693000   329.43481     -1397.8431      303          
   1694000   306.03412     -1393.8586      303          
   1695000   320.14109     -1393.0317      303          
   1696000   286.02424     -1408.5667      303          
   1697000   338.07541     -1389.6164      303          
   1698000   302.66446     -1395.037       303          
   1699000   291.53414     -1403.3763      303          
   1700000   342.12492     -1375.3535      303          
   1701000   296.96871     -1404.8425      303          
   1702000   315.00808     -1387.5476      303          
   1703000   341.13937     -1387.4954      303          
   1704000   329.62012     -1388.5404      303          
   1705000   304.01982     -1400.3088      303          
   1706000   313.38322     -1390.9753      303          
   1707000   339.23509     -1389.757       303          
   1708000   285.4427      -1404.7611      303          
   1709000   353.51356     -1368.2147      303          
   1710000   282.84541     -1404.5818      303          
   1711000   308.39953     -1390.7231      303          
   1712000   352.41686     -1379.4421      303          
   1713000   288.05587     -1391.7734      303          
   1714000   282.29881     -1408.1762      303          
   1715000   279.21352     -1401.4993      303          
   1716000   318.30234     -1400.6892      303          
   1717000   276.66013     -1404.2182      303          
   1718000   310.65916     -1388.0267      303          
   1719000   323.44493     -1387.5101      303          
   1720000   278.59296     -1405.9922      303          
   1721000   310.93316     -1400.9122      303          
   1722000   287.33335     -1407.2031      303          
   1723000   314.44301     -1397.3755      303          
   1724000   292.10875     -1394.4511      303          
   1725000   286.39746     -1405.0864      303          
   1726000   260.72964     -1403.6788      303          
   1727000   300.15322     -1403.0805      303          
   1728000   360.14934     -1372.4785      303          
   1729000   307.75448     -1398.6468      303          
   1730000   316.00178     -1393.6796      303          
   1731000   325.64958     -1387.9352      303          
   1732000   337.37095     -1388.5165      303          
   1733000   290.11926     -1408.5052      303          
   1734000   311.43935     -1390.3512      303          
   1735000   283.75834     -1404.4717      303          
   1736000   293.47925     -1389.9996      303          
   1737000   329.07236     -1378.1593      303          
   1738000   284.01083     -1401.988       303          
   1739000   304.44194     -1394.7366      303          
   1740000   308.28811     -1401.5297      303          
   1741000   305.59898     -1398.7304      303          
   1742000   316.62245     -1390.4885      303          
   1743000   304.68505     -1401.4057      303          
   1744000   328.63118     -1394.048       303          
   1745000   293.09248     -1394.2251      303          
   1746000   311.90319     -1395.9549      303          
   1747000   294.17891     -1405.7396      303          
   1748000   263.63527     -1415.5361      303          
   1749000   315.63964     -1392.0054      303          
   1750000   314.75688     -1389.689       303          
   1751000   294.20605     -1401.2832      303          
   1752000   270.2952      -1399.7414      303          
   1753000   297.01286     -1397.0599      303          
   1754000   322.56411     -1382.5165      303          
   1755000   343.43539     -1398.2914      303          
   1756000   285.7596      -1411.3296      303          
   1757000   317.36747     -1388.0575      303          
   1758000   279.19754     -1411.3972      303          
   1759000   302.03537     -1388.1208      303          
   1760000   291.65075     -1403.9727      303          
   1761000   309.37848     -1389.1013      303          
   1762000   279.18998     -1417.1508      303          
   1763000   330.12079     -1394.148       303          
   1764000   243.48577     -1417.8763      303          
   1765000   330.84476     -1384.1611      303          
   1766000   257.88948     -1406.9259      303          
   1767000   332.2377      -1387.4505      303          
   1768000   337.62699     -1389.8943      303          
   1769000   310.73574     -1378.2096      303          
   1770000   287.37461     -1407.2029      303          
   1771000   285.11966     -1403.0547      303          
   1772000   284.12413     -1412.7044      303          
   1773000   279.28792     -1395.7857      303          
   1774000   301.57743     -1401.649       303          
   1775000   282.69367     -1407.8929      303          
   1776000   308.79804     -1390.8691      303          
   1777000   319.86858     -1392.1061      303          
   1778000   324.55525     -1388.2414      303          
   1779000   312.09482     -1386.9032      303          
   1780000   297.16454     -1395.1021      303          
   1781000   326.20905     -1392.3922      303          
   1782000   294.96655     -1393.178       303          
   1783000   268.93095     -1405.0704      303          
   1784000   272.01271     -1408.5735      303          
   1785000   347.57952     -1378.4509      303          
   1786000   282.82987     -1406.5196      303          
   1787000   318.75212     -1382.6243      303          
   1788000   315.29435     -1395.7515      303          
   1789000   282.13246     -1404.8031      303          
   1790000   279.95506     -1405.1602      303          
   1791000   283.21618     -1398.6216      303          
   1792000   333.0967      -1380.1697      303          
   1793000   304.8048      -1401.8621      303          
   1794000   315.9304      -1385.8847      303          
   1795000   306.10009     -1403.3518      303          
   1796000   280.5077      -1405.4417      303          
   1797000   393.57828     -1362.6888      303          
   1798000   291.01408     -1402.2891      303          
   1799000   323.86217     -1385.298       303          
   1800000   322.12877     -1392.8752      303          
   1801000   331.9483      -1388.5234      303          
   1802000   273.50498     -1408.2693      303          
   1803000   321.93095     -1385.941       303          
   1804000   292.47077     -1402.0132      303          
   1805000   272.80935     -1402.1078      303          
   1806000   362.58711     -1385.962       303          
   1807000   273.5262      -1411.7073      303          
   1808000   263.48558     -1416.6768      303          
   1809000   288.54016     -1408.594       303          
   1810000   306.3303      -1387.1599      303          
   1811000   287.2217      -1399.6873      303          
   1812000   280.6468      -1403.0468      303          
   1813000   267.88509     -1409.3139      303          
   1814000   274.25944     -1414.2851      303          
   1815000   316.26346     -1393.4212      303          
   1816000   312.21033     -1400.2769      303          
   1817000   312.51901     -1383.9765      303          
   1818000   350.24242     -1371.5761      303          
   1819000   309.79867     -1393.7673      303          
   1820000   326.32247     -1382.0726      303          
   1821000   309.4771      -1397.217       303          
   1822000   287.54236     -1406.152       303          
   1823000   323.31196     -1381.4429      303          
   1824000   293.80276     -1399.6365      303          
   1825000   312.01907     -1388.1425      303          
   1826000   321.4034      -1391.7933      303          
   1827000   286.48962     -1392.2823      303          
   1828000   264.65321     -1410.597       303          
   1829000   287.08768     -1392.1972      303          
   1830000   304.4286      -1396.416       303          
   1831000   280.41218     -1404.3878      303          
   1832000   319.52131     -1386.5138      303          
   1833000   308.9284      -1391.3962      303          
   1834000   304.66176     -1398.5133      303          
   1835000   280.634       -1404.617       303          
   1836000   288.08196     -1397.0735      303          
   1837000   300.08649     -1392.6018      303          
   1838000   342.63651     -1383.8239      303          
   1839000   336.43638     -1377.5704      303          
   1840000   301.46229     -1399.1037      303          
   1841000   271.77627     -1406.3375      303          
   1842000   325.39347     -1386.1122      303          
   1843000   266.95379     -1410.953       303          
   1844000   312.20958     -1390.8611      303          
   1845000   268.87035     -1408.8445      303          
   1846000   316.15828     -1391.9219      303          
   1847000   302.80032     -1398.828       303          
   1848000   325.36999     -1394.5747      303          
   1849000   286.10403     -1405.7928      303          
   1850000   340.79042     -1382.07        303          
   1851000   281.5352      -1405.615       303          
   1852000   292.47379     -1386.6622      303          
   1853000   302.58255     -1396.2767      303          
   1854000   270.43572     -1410.641       303          
   1855000   304.02113     -1393.8588      303          
   1856000   296.40272     -1400.9889      303          
   1857000   289.85347     -1406.9978      303          
   1858000   323.71036     -1394.5774      303          
   1859000   278.04236     -1407.5917      303          
   1860000   351.41459     -1373.8704      303          
   1861000   281.77625     -1410.738       303          
   1862000   292.78337     -1394.1017      303          
   1863000   285.76162     -1405.454       303          
   1864000   264.7229      -1412.9003      303          
   1865000   365.38486     -1378.699       303          
   1866000   280.4991      -1399.8547      303          
   1867000   304.48171     -1394.8721      303          
   1868000   314.83555     -1392.2794      303          
   1869000   265.46406     -1408.2615      303          
   1870000   337.22345     -1386.5481      303          
   1871000   342.69951     -1388.3004      303          
   1872000   299.08819     -1401.8937      303          
   1873000   294.35761     -1405.7086      303          
   1874000   301.73117     -1387.9252      303          
   1875000   307.74352     -1394.2673      303          
   1876000   283.07553     -1406.3427      303          
   1877000   287.33993     -1392.4568      303          
   1878000   303.49709     -1398.9237      303          
   1879000   328.13016     -1387.4574      303          
   1880000   293.30177     -1404.3179      303          
   1881000   274.05532     -1397.717       303          
   1882000   306.22066     -1406.3329      303          
   1883000   277.54692     -1403.7734      303          
   1884000   313.46412     -1384.2936      303          
   1885000   328.74721     -1395.2604      303          
   1886000   275.98118     -1412.1077      303          
   1887000   321.58551     -1389.7777      303          
   1888000   285.51764     -1410.1585      303          
   1889000   319.90725     -1388.0724      303          
   1890000   290.34177     -1405.8059      303          
   1891000   336.80011     -1380.3147      303          
   1892000   270.58505     -1406.184       303          
   1893000   340.48112     -1384.4567      303          
   1894000   303.69217     -1398.2052      303          
   1895000   243.41678     -1415.8983      303          
   1896000   284.67152     -1405.5454      303          
   1897000   329.9456      -1387.9983      303          
   1898000   298.81418     -1404.0325      303          
   1899000   301.52098     -1391.5179      303          
   1900000   299.35228     -1396.7477      303          
   1901000   292.99959     -1410.9954      303          
   1902000   324.16669     -1388.7957      303          
   1903000   289.46136     -1407.5954      303          
   1904000   313.39244     -1388.5188      303          
   1905000   349.31807     -1380.1887      303          
   1906000   265.62082     -1415.19        303          
   1907000   318.81868     -1388.1388      303          
   1908000   285.90219     -1404.1214      303          
   1909000   335.5439      -1383.4653      303          
   1910000   322.27762     -1396.2909      303          
   1911000   295.83669     -1401.3096      303          
   1912000   320.18661     -1382.9148      303          
   1913000   293.78062     -1405.7931      303          
   1914000   296.72133     -1395.8832      303          
   1915000   293.83231     -1403.4525      303          
   1916000   328.77213     -1390.8576      303          
   1917000   245.56005     -1411.0549      303          
   1918000   338.30246     -1383.3971      303          
   1919000   304.94746     -1401.6804      303          
   1920000   298.88349     -1394.1687      303          
   1921000   312.91005     -1403.2894      303          
   1922000   292.88227     -1401.6558      303          
   1923000   300.87871     -1397.7521      303          
   1924000   302.77311     -1398.1295      303          
   1925000   299.27399     -1398.2377      303          
   1926000   346.15644     -1372.9313      303          
   1927000   336.17714     -1390.832       303          
   1928000   327.00382     -1395.8353      303          
   1929000   256.47662     -1410.6481      303          
   1930000   306.30822     -1389.3287      303          
   1931000   345.26567     -1383.0576      303          
   1932000   282.9478      -1404.7265      303          
   1933000   286.3652      -1401.1339      303          
   1934000   294.92433     -1395.7859      303          
   1935000   283.05146     -1398.0295      303          
   1936000   336.64649     -1382.3689      303          
   1937000   310.81187     -1402.1023      303          
   1938000   277.45825     -1403.5201      303          
   1939000   322.18753     -1387.8814      303          
   1940000   296.37977     -1390.8274      303          
   1941000   301.16375     -1399.6593      303          
   1942000   300.19024     -1398.2524      303          
   1943000   323.46079     -1387.2197      303          
   1944000   304.29607     -1404.4135      303          
   1945000   277.38529     -1401.8231      303          
   1946000   325.00757     -1376.4785      303          
   1947000   320.02497     -1392.9944      303          
   1948000   271.86298     -1410.546       303          
   1949000   330.60357     -1380.1101      303          
   1950000   318.84501     -1384.3023      303          
   1951000   301.9101      -1398.7063      303          
   1952000   308.8919      -1388.6007      303          
   1953000   287.3681      -1397.2944      303          
   1954000   295.39731     -1404.9042      303          
   1955000   294.90875     -1406.6731      303          
   1956000   292.97577     -1393.9245      303          
   1957000   337.33311     -1377.4129      303          
   1958000   308.52361     -1392.8865      303          
   1959000   304.55534     -1384.1773      303          
   1960000   340.56593     -1385.2087      303          
   1961000   290.58753     -1403.7509      303          
   1962000   297.7631      -1393.4679      303          
   1963000   357.4913      -1375.312       303          
   1964000   277.80023     -1408.2683      303          
   1965000   307.31147     -1393.3568      303          
   1966000   292.25307     -1402.5819      303          
   1967000   303.23203     -1400.9604      303          
   1968000   315.12517     -1389.326       303          
   1969000   323.82174     -1389.1729      303          
   1970000   274.68563     -1411.7327      303          
   1971000   296.81559     -1393.4582      303          
   1972000   288.63406     -1404.21        303          
   1973000   328.14778     -1387.9748      303          
   1974000   314.73348     -1395.041       303          
   1975000   300.87981     -1397.2088      303          
   1976000   296.27446     -1403.2244      303          
   1977000   292.99046     -1395.9236      303          
   1978000   297.71614     -1398.6854      303          
   1979000   276.20576     -1409.0983      303          
   1980000   323.51066     -1390.114       303          
   1981000   314.59202     -1400.1437      303          
   1982000   303.9188      -1389.9398      303          
   1983000   350.69332     -1380.4455      303          
   1984000   297.31363     -1400.0417      303          
   1985000   323.57209     -1395.5779      303          
   1986000   293.78112     -1399.1836      303          
   1987000   273.6498      -1412.1433      303          
   1988000   307.38421     -1388.7623      303          
   1989000   306.12683     -1403.3666      303          
   1990000   294.96658     -1400.9018      303          
   1991000   312.267       -1398.8269      303          
   1992000   315.77999     -1385.497       303          
   1993000   295.74019     -1402.9671      303          
   1994000   305.28633     -1388.7415      303          
   1995000   305.31251     -1399.788       303          
   1996000   325.53365     -1394.5826      303          
   1997000   294.91339     -1400.7218      303          
   1998000   350.01611     -1384.9559      303          
   1999000   304.5758      -1391.338       303          
   2000000   288.55082     -1401.0294      303          
   2001000   304.93014     -1393.0576      303          
   2002000   320.5455      -1386.4865      303          
   2003000   286.51889     -1402.2573      303          
   2004000   283.67457     -1404.3103      303          
   2005000   292.71437     -1398.687       303          
   2006000   346.46961     -1382.3296      303          
   2007000   290.76534     -1408.4929      303          
   2008000   282.49374     -1405.1986      303          
   2009000   274.31716     -1403.8904      303          
   2010000   296.8034      -1406.4256      303          
   2011000   298.66004     -1406.6483      303          
   2012000   310.18777     -1389.5879      303          
   2013000   272.43168     -1406.3105      303          
   2014000   330.52494     -1389.3183      303          
   2015000   282.57766     -1398.0949      303          
   2016000   288.21058     -1401.1358      303          
   2017000   346.33198     -1380.8542      303          
   2018000   291.84827     -1405.391       303          
   2019000   290.37763     -1405.9876      303          
   2020000   304.3838      -1391.7974      303          
   2021000   264.39344     -1416.7926      303          
   2022000   322.69256     -1387.1403      303          
   2023000   344.54458     -1377.2255      303          
   2024000   298.55764     -1399.3462      303          
   2025000   281.04823     -1400.8812      303          
   2026000   298.68588     -1391.1703      303          
   2027000   337.01998     -1381.7073      303          
   2028000   278.73674     -1403.2823      303          
   2029000   320.81375     -1391.5461      303          
   2030000   254.51726     -1420.6863      303          
   2031000   307.46163     -1401.9635      303          
   2032000   257.04992     -1404.4972      303          
   2033000   308.49778     -1402.418       303          
   2034000   295.58379     -1393.8382      303          
   2035000   348.39644     -1381.9239      303          
   2036000   302.12887     -1403.4111      303          
   2037000   287.43965     -1398.9831      303          
   2038000   340.24638     -1382.8403      303          
   2039000   322.40141     -1397.2701      303          
   2040000   285.17603     -1393.1574      303          
   2041000   343.35076     -1386.6352      303          
   2042000   281.63799     -1392.1704      302          
   2043000   288.71895     -1386.5938      302          
   2044000   306.4535      -1382.921       302          
   2045000   294.37245     -1395.9503      302          
   2046000   300.7116      -1388.9441      302          
   2047000   280.76409     -1401.5036      302          
   2048000   316.43088     -1379.8296      302          
   2049000   326.05185     -1388.4323      302          
   2050000   273.19817     -1396.7112      302          
   2051000   306.98337     -1383.6139      302          
   2052000   276.59792     -1397.4075      302          
   2053000   308.13465     -1385.6193      302          
   2054000   323.5669      -1373.854       302          
   2055000   298.66027     -1390.7217      302          
   2056000   292.32411     -1391.0601      302          
   2057000   306.68355     -1388.3728      302          
   2058000   302.38301     -1392.8707      302          
   2059000   310.6127      -1381.1929      302          
   2060000   296.9096      -1394.5253      302          
   2061000   346.78632     -1366.8431      302          
   2062000   276.87104     -1395.3726      302          
   2063000   340.59692     -1374.5178      302          
   2064000   308.1912      -1390.8477      302          
   2065000   282.12454     -1393.3444      302          
   2066000   296.18638     -1391.0324      302          
   2067000   273.21854     -1390.5977      302          
   2068000   291.69286     -1397.4368      302          
   2069000   309.33665     -1383.0336      302          
   2070000   281.05819     -1403.1406      302          
   2071000   280.24732     -1404.3438      302          
   2072000   302.35264     -1385.5309      302          
   2073000   303.12832     -1383.0644      302          
   2074000   292.87087     -1390.8586      302          
   2075000   330.40719     -1372.2665      302          
   2076000   296.00054     -1396.9125      302          
   2077000   301.03535     -1382.7186      302          
   2078000   286.32149     -1399.1767      302          
   2079000   326.4659      -1380.8895      302          
   2080000   303.07099     -1389.3284      302          
   2081000   300.08229     -1393.0777      302          
   2082000   302.89809     -1399.3125      302          
   2083000   286.75236     -1389.7139      302          
   2084000   332.92671     -1381.9451      302          
   2085000   277.77785     -1393.0678      302          
   2086000   327.81407     -1376.899       302          
   2087000   296.86347     -1389.7653      302          
   2088000   306.65785     -1390.3748      302          
   2089000   286.31001     -1391.9341      302          
   2090000   336.58332     -1367.891       302          
   2091000   269.25967     -1410.9269      302          
   2092000   291.63167     -1402.7802      302          
   2093000   330.03249     -1375.7775      302          
   2094000   292.6001      -1395.4511      302          
   2095000   307.23333     -1377.5943      302          
   2096000   303.96417     -1386.0383      302          
   2097000   307.90057     -1391.8438      302          
   2098000   285.0691      -1398.369       302          
   2099000   310.03906     -1373.9257      302          
   2100000   313.83321     -1392.6716      302          
   2101000   286.67905     -1395.5587      302          
   2102000   281.88454     -1399.5143      302          
   2103000   331.49897     -1377.924       302          
   2104000   302.70531     -1395.4192      302          
   2105000   312.21313     -1381.4633      302          
   2106000   300.11661     -1394.0828      302          
   2107000   344.96289     -1373.6378      302          
   2108000   308.44426     -1384.3075      302          
   2109000   285.28597     -1394.0036      302          
   2110000   272.82838     -1402.9666      302          
   2111000   280.51814     -1397.7962      302          
   2112000   331.56866     -1370.0467      302          
   2113000   306.84858     -1391.7433      302          
   2114000   270.56662     -1395.5034      302          
   2115000   338.7518      -1382.666       302          
   2116000   293.86483     -1385.0218      302          
   2117000   331.10954     -1376.0089      302          
   2118000   286.07455     -1399.3779      302          
   2119000   315.57964     -1371.217       302          
   2120000   317.45917     -1384.419       302          
   2121000   268.13344     -1402.482       302          
   2122000   291.94355     -1380.4789      302          
   2123000   322.63495     -1389.3049      302          
   2124000   301.51504     -1394.4554      302          
   2125000   343.02587     -1369.5567      302          
   2126000   287.6513      -1395.9517      302          
   2127000   282.57397     -1389.2264      302          
   2128000   276.07736     -1391.3119      302          
   2129000   312.14462     -1392.3289      302          
   2130000   319.65832     -1382.6829      302          
   2131000   257.68574     -1400.2827      302          
   2132000   333.08558     -1370.5375      302          
   2133000   272.63067     -1402.8211      302          
   2134000   323.41478     -1380.5122      302          
   2135000   310.98779     -1382.6963      302          
   2136000   279.08205     -1394.9491      302          
   2137000   325.99732     -1377.7202      302          
   2138000   352.944       -1363.1332      302          
   2139000   283.91302     -1396.9321      302          
   2140000   329.27314     -1373.9714      302          
   2141000   319.04049     -1390.0848      302          
   2142000   326.0039      -1373.8776      302          
   2143000   305.30512     -1392.7         302          
   2144000   328.97672     -1372.4456      302          
   2145000   290.57145     -1402.1575      302          
   2146000   299.86532     -1384.0853      302          
   2147000   279.51498     -1394.6186      302          
   2148000   360.99976     -1375.0578      302          
   2149000   292.34038     -1393.5703      302          
   2150000   304.13896     -1384.4899      302          
   2151000   327.09692     -1376.8314      302          
   2152000   271.47252     -1404.6166      302          
   2153000   303.05157     -1383.7499      302          
   2154000   314.82716     -1393.1435      302          
   2155000   276.63241     -1389.501       302          
   2156000   304.40295     -1377.0477      302          
   2157000   289.84304     -1398.7072      302          
   2158000   295.54224     -1389.5489      302          
   2159000   358.62941     -1368.0683      302          
   2160000   298.06911     -1395.0049      302          
   2161000   359.26437     -1368.3521      302          
   2162000   313.93435     -1386.8579      302          
   2163000   310.67764     -1380.3193      302          
   2164000   273.30424     -1403.1565      302          
   2165000   286.50017     -1387.0111      302          
   2166000   317.40174     -1381.5824      302          
   2167000   272.8369      -1408.2931      302          
   2168000   304.27801     -1384.039       302          
   2169000   307.26515     -1387.2049      302          
   2170000   342.85105     -1364.0936      302          
   2171000   281.29377     -1402.5953      302          
   2172000   293.37155     -1383.4932      302          
   2173000   303.16477     -1391.3696      302          
   2174000   301.90771     -1394.0414      303          
   2175000   287.44865     -1396.6241      303          
   2176000   282.84188     -1408.0436      303          
   2177000   312.39261     -1389.8623      303          
   2178000   295.74316     -1397.7685      303          
   2179000   291.33583     -1404.171       303          
   2180000   331.4148      -1379.3436      303          
   2181000   294.65056     -1404.3088      303          
   2182000   309.59868     -1382.2168      303          
   2183000   325.27834     -1394.9341      303          
   2184000   320.60137     -1393.7157      303          
   2185000   298.24197     -1400.9668      303          
   2186000   340.79737     -1387.6038      303          
   2187000   285.54492     -1400.8569      303          
   2188000   290.87631     -1395.0613      303          
   2189000   328.58408     -1389.6187      303          
   2190000   302.24125     -1404.7019      303          
   2191000   257.03195     -1409.3974      303          
   2192000   306.99772     -1395.7148      303          
   2193000   268.66475     -1407.9758      303          
   2194000   292.77676     -1399.5349      303          
   2195000   323.01531     -1387.6         303          
   2196000   323.13086     -1388.5543      303          
   2197000   305.10686     -1403.6957      303          
   2198000   258.66514     -1414.8603      303          
   2199000   308.52145     -1389.5607      303          
   2200000   333.78125     -1380.8861      303          
   2201000   285.27633     -1404.265       303          
   2202000   278.19401     -1407.2635      303          
   2203000   314.1979      -1395.7126      303          
   2204000   317.27774     -1389.2744      303          
   2205000   294.06806     -1405.32        303          
   2206000   309.37153     -1386.3482      303          
   2207000   318.33126     -1397.0242      303          
   2208000   345.44525     -1386.0908      303          
   2209000   273.67782     -1411.7062      303          
   2210000   314.44817     -1394.5267      303          
   2211000   306.33921     -1391.7504      303          
   2212000   321.21394     -1391.5623      303          
   2213000   298.56742     -1403.6959      303          
   2214000   328.21192     -1381.6294      303          
   2215000   302.66799     -1403.4018      303          
   2216000   266.33331     -1416.4264      303          
   2217000   350.37274     -1384.4269      303          
   2218000   290.41905     -1407.1492      303          
   2219000   285.86974     -1401.3405      303          
   2220000   330.61426     -1375.2178      303          
   2221000   306.87887     -1400.1638      303          
   2222000   289.96511     -1397.3206      303          
   2223000   299.83157     -1397.9096      303          
   2224000   337.75423     -1386.0688      303          
   2225000   314.45332     -1399.7561      303          
   2226000   295.34141     -1402.3008      303          
   2227000   301.65134     -1394.3838      303          
   2228000   299.11182     -1406.7355      303          
   2229000   274.58819     -1400.6052      303          
   2230000   331.68361     -1379.698       303          
   2231000   307.03505     -1398.9611      303          
   2232000   318.71416     -1392.2684      303          
   2233000   343.07142     -1383.2153      303          
   2234000   276.35884     -1416.2424      303          
   2235000   299.5983      -1395.167       303          
   2236000   300.23721     -1405.1674      303          
   2237000   316.18809     -1395.7122      303          
   2238000   274.91135     -1411.2092      303          
   2239000   303.6547      -1394.5016      303          
   2240000   284.77909     -1397.7648      303          
   2241000   305.46609     -1393.2542      303          
   2242000   273.62334     -1412.5062      303          
   2243000   328.9206      -1389.9462      303          
   2244000   298.12468     -1398.219       303          
   2245000   335.27714     -1386.165       303          
   2246000   314.17449     -1401.5299      303          
   2247000   325.35503     -1384.5628      303          
   2248000   262.61876     -1417.3881      303          
   2249000   327.08129     -1387.4814      303          
   2250000   253.13264     -1419.4194      303          
   2251000   291.75919     -1407.7576      303          
   2252000   281.56023     -1402.6051      303          
   2253000   292.06159     -1387.1163      303          
   2254000   311.25502     -1402.5688      303          
   2255000   299.94836     -1399.1034      303          
   2256000   308.10194     -1390.2367      303          
   2257000   255.60491     -1417.876       303          
   2258000   278.15474     -1400.8928      303          
   2259000   300.37486     -1393.9793      303          
   2260000   286.19598     -1401.3308      303          
   2261000   282.51029     -1400.261       303          
   2262000   287.31243     -1400.0704      303          
   2263000   338.26899     -1389.0311      303          
   2264000   295.31052     -1397.2448      303          
   2265000   282.94236     -1409.2551      303          
   2266000   336.73814     -1383.8096      303          
   2267000   271.46771     -1404.8974      303          
   2268000   285.46738     -1397.6338      303          
   2269000   343.82805     -1387.2071      303          
   2270000   332.09627     -1382.9486      303          
   2271000   318.26463     -1402.1917      303          
   2272000   284.0299      -1401.6741      303          
   2273000   313.47976     -1398.813       303          
   2274000   307.39938     -1392.9601      303          
   2275000   331.27674     -1392.1613      303          
   2276000   272.08588     -1401.2312      303          
   2277000   333.82068     -1385.2177      303          
   2278000   281.8904      -1408.0812      303          
   2279000   291.20821     -1393.6648      303          
   2280000   357.09749     -1386.8879      303          
   2281000   269.33779     -1414.8415      303          
   2282000   318.2349      -1398.2606      303          
   2283000   313.21372     -1392.361       303          
   2284000   312.73073     -1396.8916      303          
   2285000   306.56005     -1393.6981      303          
   2286000   279.12526     -1407.7783      303          
   2287000   304.44271     -1411.5146      303          
   2288000   308.01477     -1395.042       303          
   2289000   327.63173     -1394.2759      303          
   2290000   274.27927     -1413.1492      303          
   2291000   345.82749     -1384.1184      303          
   2292000   312.30063     -1396.0891      303          
   2293000   284.72755     -1400.7         303          
   2294000   329.12572     -1387.2306      303          
   2295000   303.58248     -1403.1926      303          
   2296000   267.36586     -1407.6218      303          
   2297000   346.72628     -1382.1316      303          
   2298000   283.71327     -1406.2654      303          
   2299000   337.24032     -1386.1824      303          
   2300000   297.68617     -1407.5827      303          
   2301000   283.48121     -1403.0586      303          
   2302000   307.08262     -1389.4033      303          
   2303000   287.81605     -1412.1998      303          
   2304000   323.64538     -1390.3086      303          
   2305000   330.72587     -1386.2837      303          
   2306000   297.40298     -1406.6389      303          
   2307000   275.77065     -1406.2555      303          
   2308000   320.88105     -1394.4452      303          
   2309000   294.3665      -1404.3607      303          
   2310000   305.69763     -1399.0121      303          
   2311000   286.46553     -1404.2521      303          
   2312000   340.27038     -1384.4702      303          
   2313000   304.46409     -1404.5604      303          
   2314000   310.39243     -1403.2362      303          
   2315000   300.87831     -1392.2649      303          
   2316000   323.80012     -1390.3314      303          
   2317000   287.98434     -1407.2163      303          
   2318000   322.1328      -1383.2557      303          
   2319000   302.96222     -1401.5698      303          
   2320000   305.86108     -1396.3606      303          
   2321000   288.99295     -1400.5603      303          
   2322000   301.5016      -1389.4575      303          
   2323000   312.84566     -1399.6802      303          
   2324000   319.08809     -1391.5011      303          
   2325000   289.92002     -1407.1563      303          
   2326000   327.85551     -1385.6889      303          
   2327000   296.38977     -1405.556       303          
   2328000   281.16419     -1400.9602      303          
   2329000   283.40087     -1403.8096      303          
   2330000   330.22228     -1388.4365      303          
   2331000   281.01863     -1405.9197      303          
   2332000   312.71227     -1392.768       303          
   2333000   307.94707     -1399.5662      303          
   2334000   324.59015     -1389.1797      303          
   2335000   307.40597     -1404.9093      303          
   2336000   260.48471     -1410.8985      303          
   2337000   327.49816     -1391.0725      303          
   2338000   265.84257     -1410.4495      303          
   2339000   316.20829     -1390.0595      303          
   2340000   315.96575     -1399.8427      303          
   2341000   316.6899      -1394.676       303          
   2342000   282.90344     -1401.8911      303          
   2343000   316.74865     -1392.4223      303          
   2344000   308.9638      -1393.1889      303          
   2345000   314.68926     -1403.2982      303          
   2346000   337.95956     -1397.5245      303          
   2347000   281.30697     -1408.7106      303          
   2348000   308.39665     -1396.1735      303          
   2349000   300.88965     -1397.6169      303          
   2350000   267.81971     -1412.9628      303          
   2351000   329.82305     -1381.1507      303          
   2352000   285.91704     -1401.686       303          
   2353000   306.61014     -1395.8407      303          
   2354000   348.94465     -1390.4545      303          
   2355000   282.26784     -1404.3288      303          
   2356000   287.87552     -1404.403       303          
   2357000   292.83576     -1406.1609      303          
   2358000   279.48292     -1406.3989      303          
   2359000   303.82859     -1398.2093      303          
   2360000   302.04491     -1397.2256      303          
   2361000   333.6947      -1387.5186      303          
   2362000   287.95275     -1418.1494      303          
   2363000   285.32605     -1404.4065      303          
   2364000   312.55127     -1390.5408      303          
   2365000   276.08717     -1414.2728      303          
   2366000   298.68333     -1397.6718      303          
   2367000   324.91124     -1388.598       303          
   2368000   325.34999     -1398.3084      303          
   2369000   276.5119      -1411.7295      303          
   2370000   340.25846     -1387.4094      303          
   2371000   324.29541     -1399.2649      303          
   2372000   320.11826     -1388.8333      303          
   2373000   270.05314     -1413.1992      303          
   2374000   308.81447     -1395.5909      303          
   2375000   317.55601     -1392.4472      303          
   2376000   294.31044     -1403.8612      303          
   2377000   291.80178     -1406.5812      303          
   2378000   269.69165     -1407.1722      303          
   2379000   342.44325     -1389.6414      303          
   2380000   289.28131     -1408.2753      303          
   2381000   253.06164     -1414.0658      303          
   2382000   327.52771     -1389.6754      303          
   2383000   286.90457     -1405.5564      303          
   2384000   299.38561     -1398.6261      303          
   2385000   276.02058     -1409.3612      303          
   2386000   338.77785     -1380.8662      303          
   2387000   287.31624     -1410.43        303          
   2388000   290.4785      -1398.9717      303          
   2389000   325.94327     -1387.0179      303          
   2390000   290.89405     -1404.894       303          
   2391000   304.10362     -1393.5381      303          
   2392000   320.94734     -1397.6689      303          
   2393000   274.6963      -1410.3769      303          
   2394000   340.03489     -1381.6111      303          
   2395000   293.8769      -1403.6071      303          
   2396000   267.23708     -1412.9745      303          
   2397000   285.08755     -1409.0099      303          
   2398000   297.66952     -1405.6735      303          
   2399000   317.90487     -1405.811       304          
   2400000   310.42873     -1413.0397      304          
   2401000   297.41678     -1411.9508      304          
   2402000   273.42896     -1419.4238      304          
   2403000   329.73494     -1391.7687      304          
   2404000   278.7082      -1421.7906      304          
   2405000   329.88358     -1392.1587      304          
   2406000   267.75507     -1421.2638      304          
   2407000   290.46839     -1404.5712      304          
   2408000   318.5198      -1402.2975      304          
   2409000   319.96438     -1410.3951      304          
   2410000   251.41707     -1429.0187      304          
   2411000   325.07458     -1401.5734      304          
   2412000   286.5563      -1416.1696      304          
   2413000   315.55013     -1407.9354      304          
   2414000   278.43597     -1417.0379      304          
   2415000   299.7284      -1410.6225      304          
   2416000   298.53428     -1399.3123      304          
   2417000   347.0541      -1392.3221      304          
   2418000   283.63869     -1421.3328      304          
   2419000   293.57455     -1412.2197      304          
   2420000   315.36905     -1406.8         304          
   2421000   323.93273     -1403.222       304          
   2422000   278.58545     -1412.058       304          
   2423000   325.76924     -1400.1544      304          
   2424000   302.8035      -1401.5793      304          
   2425000   297.94237     -1409.4726      304          
   2426000   293.34044     -1417.5185      304          
   2427000   266.25763     -1422.3994      304          
   2428000   305.64801     -1405.7016      304          
   2429000   316.24751     -1398.1129      304          
   2430000   304.02914     -1413.359       304          
   2431000   316.06858     -1395.6049      304          
   2432000   349.81347     -1396.2924      304          
   2433000   279.27568     -1417.6917      304          
   2434000   316.44153     -1398.6513      304          
   2435000   306.0041      -1411.1699      304          
   2436000   300.35921     -1412.065       304          
   2437000   335.59436     -1394.2537      304          
   2438000   276.55552     -1426.0517      304          
   2439000   305.95017     -1401.6932      304          
   2440000   324.75256     -1402.3264      304          
   2441000   298.4223      -1414.0899      304          
   2442000   319.67125     -1398.3748      304          
   2443000   304.0533      -1401.9174      304          
   2444000   300.90431     -1405.4485      304          
   2445000   269.16572     -1418.7271      304          
   2446000   319.23281     -1404.2256      304          
   2447000   286.15947     -1416.0423      304          
   2448000   290.43087     -1403.7563      304          
   2449000   323.31787     -1403.5502      304          
   2450000   287.69982     -1416.9718      304          
   2451000   324.93546     -1390.2576      304          
   2452000   268.33854     -1426.3641      304          
   2453000   289.95463     -1422.6309      304          
   2454000   306.77199     -1402.2184      304          
   2455000   341.83555     -1396.6053      304          
   2456000   313.48793     -1408.2922      304          
   2457000   314.3614      -1405.639       304          
   2458000   308.3439      -1402.2776      304          
   2459000   306.2511      -1410.2381      304          
   2460000   280.78716     -1411.5635      304          
   2461000   336.24932     -1392.1354      304          
   2462000   278.15528     -1422.8064      304          
   2463000   321.54972     -1396.7058      304          
   2464000   296.7445      -1406.7266      304          
   2465000   309.54775     -1404.3704      304          
   2466000   343.81325     -1389.1312      304          
   2467000   273.45305     -1414.2197      304          
   2468000   337.87143     -1395.4474      304          
   2469000   302.13651     -1414.9133      304          
   2470000   305.00309     -1405.6083      304          
   2471000   306.00306     -1406.6605      304          
   2472000   319.39087     -1392.3583      304          
   2473000   287.44543     -1416.751       304          
   2474000   302.16486     -1408.976       304          
   2475000   338.39198     -1398.451       304          
   2476000   327.60588     -1397.4151      304          
   2477000   343.47565     -1386.9561      304          
   2478000   283.66209     -1415.9995      304          
   2479000   305.45821     -1397.626       304          
   2480000   325.22267     -1400.2627      304          
   2481000   285.28705     -1413.5054      304          
   2482000   294.62869     -1409.8359      304          
   2483000   312.51783     -1402.7766      304          
   2484000   323.08361     -1401.0139      304          
   2485000   287.41851     -1416.5214      304          
   2486000   339.99649     -1396.5107      304          
   2487000   311.46817     -1413.6247      304          
   2488000   275.4213      -1417.8353      304          
   2489000   341.03512     -1396.539       304          
   2490000   292.91994     -1416.8778      304          
   2491000   299.78124     -1419.4025      304          
   2492000   270.92329     -1416.1231      304          
   2493000   334.88345     -1399.7153      304          
   2494000   286.02656     -1418.8564      304          
   2495000   315.09975     -1404.4571      304          
   2496000   301.51393     -1414.1682      304          
   2497000   323.53907     -1401.9462      304          
   2498000   271.47165     -1425.7578      304          
   2499000   330.14553     -1402.9765      304          
   2500000   283.80464     -1420.4819      304          
   2501000   310.62704     -1412.3599      304          
   2502000   329.41074     -1401.8295      304          
Loop time of 13485.3 on 8 procs for 2500000 steps with 912 atoms

Performance: 16.017 ns/day, 1.498 hours/ns, 185.387 timesteps/s, 169.073 katom-step/s
799.9% CPU use with 1 MPI tasks x 8 OpenMP threads

MPI task timing breakdown:
Section |  min time  |  avg time  |  max time  |%varavg| %total
---------------------------------------------------------------
Pair    | 1304.5     | 1304.5     | 1304.5     |   0.0 |  9.67
Bond    | 17.883     | 17.883     | 17.883     |   0.0 |  0.13
Kspace  | 615.98     | 615.98     | 615.98     |   0.0 |  4.57
Neigh   | 61.978     | 61.978     | 61.978     |   0.0 |  0.46
Comm    | 95.425     | 95.425     | 95.425     |   0.0 |  0.71
Output  | 0.061854   | 0.061854   | 0.061854   |   0.0 |  0.00
Modify  | 11384      | 11384      | 11384      |   0.0 | 84.41
Other   |            | 6.01       |            |       |  0.04

Nlocal:            912 ave         912 max         912 min
Histogram: 1 0 0 0 0 0 0 0 0 0
Nghost:           7742 ave        7742 max        7742 min
Histogram: 1 0 0 0 0 0 0 0 0 0
Neighs:         305791 ave      305791 max      305791 min
Histogram: 1 0 0 0 0 0 0 0 0 0

Total # of neighbors = 305791
Ave neighs/atom = 335.29715
Ave special neighs/atom = 2
Neighbor list builds = 2550033
Dangerous builds = 0
Total wall time: 3:44:45
