LAMMPS (27 Jun 2024)
  using 8 OpenMP thread(s) per MPI task
package omp 0
using multi-threaded neighbor list subroutines
# LAMMPS input script by Simon Gravelle
# For LAMMPS tutorials, see https://lammpstutorials.github.io
# Last tested using the 27Jun2024 LAMMPS version

variable Nstep equal 2500000
variable mu_K equal -4600
variable mu_kcal_mol equal ${mu_K}*0.0019872041
variable mu_kcal_mol equal -4600*0.0019872041
print "mu equal ${mu_kcal_mol}"
mu equal -9.14113886
variable tfac equal 5.0/3.0
variable Nattempt equal 10

units real
boundary p p p
atom_style full
pair_style lj/cut/coul/long 12
kspace_style ewald 1.0e-5
bond_style harmonic
angle_style harmonic
pair_modify mix geometric
special_bonds lj 0.0 0.0 0.0 coul 0.0 0.0 0.0 angle yes

read_data box.data
Reading data file ...
  orthogonal box = (-25 -25 -25) to (25 25 25)
  1 by 1 by 1 MPI processor grid
  reading atom labelmap ...
  reading bond labelmap ...
  reading angle labelmap ...
  reading atoms ...
  150 atoms
  reading velocities ...
  150 velocities
  scanning bonds ...
  1 = max bonds/atom
  scanning angles ...
  1 = max angles/atom
  orthogonal box = (-25 -25 -25) to (25 25 25)
  1 by 1 by 1 MPI processor grid
  reading bonds ...
  100 bonds
  reading angles ...
  50 angles
Finding 1-2 1-3 1-4 neighbors ...
  special bond factors lj:    0        0        0       
  special bond factors coul:  0        0        0       
     2 = max # of 1-2 neighbors
     1 = max # of 1-3 neighbors
     1 = max # of 1-4 neighbors
  100 = # of 1-3 neighbors before angle trim
  100 = # of 1-3 neighbors after angle trim
     2 = max # of special neighbors
  special bonds CPU = 0.000 seconds
  read_data CPU = 0.015 seconds
labelmap atom 1 O 2 C
labelmap bond 1 C-O
labelmap angle 1 O-C-O

group CO2 type C O
150 atoms in group CO2
include parm.lmp
# LAMMPS parameter file for H2O SPCE water model
# For conversion from K to kcal / mol, multiply
# by Boltzmann = 0.0019872041 kcal / (mol * K)

mass O 15.9994
mass C 12.0110

pair_coeff O O 0.164858 3.011
pair_coeff C C 0.05894 2.789

bond_coeff C-O 0.0 1.18 # rigid

angle_coeff O-C-O 0.0 180.0 # rigid

molecule CO2mol CO2.mol
Read molecule template CO2mol:
# LAMMPS molecule file for carbondioxide
  1 molecules
  0 fragments
  3 atoms with max type 2
  2 bonds with max type 1
  1 angles with max type 1
  0 dihedrals with max type 0
  0 impropers with max type 0

fix mynvt CO2 rigid/nvt/small molecule temp 300 300 100 mol CO2mol
  create bodies CPU = 0.000 seconds
  50 rigid bodies with 150 atoms
  1.18 = max distance from body owner to body atom
thermo 1000

run 2000

CITE-CITE-CITE-CITE-CITE-CITE-CITE-CITE-CITE-CITE-CITE-CITE-CITE

Your simulation uses code contributions which should be cited:

- Type Label Framework: https://doi.org/10.1021/acs.jpcb.3c08419

@Article{Gissinger24,
 author = {Jacob R. Gissinger, Ilia Nikiforov, Yaser Afshar, Brendon Waters, Moon-ki Choi, Daniel S. Karls, Alexander Stukowski, Wonpil Im, Hendrik Heinz, Axel Kohlmeyer, and Ellad B. Tadmor},
 title = {Type Label Framework for Bonded Force Fields in LAMMPS},
 journal = {J. Phys. Chem. B},
 year =    2024,
 volume =  128,
 number =  13,
 pages =   {3282â€“-3297}
}

CITE-CITE-CITE-CITE-CITE-CITE-CITE-CITE-CITE-CITE-CITE-CITE-CITE

Ewald initialization ...
  using 12-bit tables for long-range coulomb (src/kspace.cpp:342)
  G vector (1/distance) = 0.20077039
  estimated absolute RMS force accuracy = 0.0039018044
  estimated relative force accuracy = 1.1750168e-05
  KSpace vectors: actual max1d max3d = 1054 8 2456
                  kxmax kymax kzmax  = 8 8 8
Generated 1 of 1 mixed pair_coeff terms from geometric mixing rule
Last active /omp style is kspace_style ewald/omp
Neighbor list info ...
  update: every = 1 steps, delay = 0 steps, check = yes
  max neighbors/atom: 2000, page size: 100000
  master list distance cutoff = 14
  ghost atom cutoff = 14
  binsize = 7, bins = 8 8 8
  1 neighbor lists, perpetual/occasional/extra = 1 0 0
  (1) pair lj/cut/coul/long/omp, perpetual
      attributes: half, newton on, omp
      pair build: half/bin/newton/omp
      stencil: half/bin/3d
      bin: standard
Per MPI rank memory allocation (min/avg/max) = 31.23 | 31.23 | 31.23 Mbytes
   Step          Temp          E_pair         E_mol          TotEng         Press     
         0   0             -1.3802283      0             -1.3802283     -1.9091073    
      1000   244.97829     -2.8147982      0              57.307781      2.9372644    
      2000   217.84894     -2.3855577      0              51.078935      19.431984    
Loop time of 0.625664 on 8 procs for 2000 steps with 150 atoms

Performance: 276.187 ns/day, 0.087 hours/ns, 3196.606 timesteps/s, 479.491 katom-step/s
796.6% CPU use with 1 MPI tasks x 8 OpenMP threads

MPI task timing breakdown:
Section |  min time  |  avg time  |  max time  |%varavg| %total
---------------------------------------------------------------
Pair    | 0.010398   | 0.010398   | 0.010398   |   0.0 |  1.66
Bond    | 0.0097367  | 0.0097367  | 0.0097367  |   0.0 |  1.56
Kspace  | 0.52694    | 0.52694    | 0.52694    |   0.0 | 84.22
Neigh   | 0.00080321 | 0.00080321 | 0.00080321 |   0.0 |  0.13
Comm    | 0.0055331  | 0.0055331  | 0.0055331  |   0.0 |  0.88
Output  | 2.2844e-05 | 2.2844e-05 | 2.2844e-05 |   0.0 |  0.00
Modify  | 0.071023   | 0.071023   | 0.071023   |   0.0 | 11.35
Other   |            | 0.001203   |            |       |  0.19

Nlocal:            150 ave         150 max         150 min
Histogram: 1 0 0 0 0 0 0 0 0 0
Nghost:            444 ave         444 max         444 min
Histogram: 1 0 0 0 0 0 0 0 0 0
Neighs:           1106 ave        1106 max        1106 min
Histogram: 1 0 0 0 0 0 0 0 0 0

Total # of neighbors = 1106
Ave neighs/atom = 7.3733333
Ave special neighs/atom = 2
Neighbor list builds = 27
Dangerous builds = 0

fix fgcmc CO2 gcmc 100 ${Nattempt} 0 0 25899 300 ${mu_kcal_mol} 0.1     mol CO2mol tfac_insert ${tfac} full_energy rigid mynvt
fix fgcmc CO2 gcmc 100 10 0 0 25899 300 ${mu_kcal_mol} 0.1     mol CO2mol tfac_insert ${tfac} full_energy rigid mynvt
fix fgcmc CO2 gcmc 100 10 0 0 25899 300 -9.14113886 0.1     mol CO2mol tfac_insert ${tfac} full_energy rigid mynvt
fix fgcmc CO2 gcmc 100 10 0 0 25899 300 -9.14113886 0.1     mol CO2mol tfac_insert 1.66666666666667 full_energy rigid mynvt

variable carbon atom "type==2"
group carbon dynamic all var carbon
dynamic group carbon defined
variable nC equal count(carbon)
fix myat1 all ave/time 10 10 1000 v_nC file number_CO2.dat
variable density equal v_nC*(2*15.9994+12.011)/vol/6.022e23*(1e8)^3
fix myat2 all ave/time 10 10 1000 v_density file density_CO2.dat
compute press all pressure thermo_temp
fix myat3 all ave/time 10 100 1000 c_press file pressure_CO2.dat
thermo_style custom step temp etotal v_nC

run ${Nstep}
run 2500000
Ewald initialization ...
  using 12-bit tables for long-range coulomb (src/kspace.cpp:342)
  G vector (1/distance) = 0.20077039
  estimated absolute RMS force accuracy = 0.0039018044
  estimated relative force accuracy = 1.1750168e-05
  KSpace vectors: actual max1d max3d = 1054 8 2456
                  kxmax kymax kzmax  = 8 8 8
Generated 1 of 1 mixed pair_coeff terms from geometric mixing rule
Last active /omp style is kspace_style ewald/omp
0 atoms in group FixGCMC:gcmc_exclusion_group:fgcmc
0 atoms in group FixGCMC:rotation_gas_atoms:fgcmc
WARNING: Neighbor exclusions used with KSpace solver may give inconsistent Coulombic energies (src/neighbor.cpp:658)
Per MPI rank memory allocation (min/avg/max) = 31.23 | 31.23 | 31.23 Mbytes
   Step          Temp          TotEng          v_nC     
      2000   217.84894      51.078935      50           
      3000   276.51649      67.600566      15           
      4000   148.44021      36.291282      12           
      5000   37.054757      9.0753283      4            
      6000   103.91994      25.166193      6            
      7000   111.83569      27.430808      8            
      8000   90.623246      22.220642      5            
      9000   142.85913      35.052408      7            
     10000   147.39547      36.167037      6            
     11000   90.193398      22.133935      7            
     12000   207.47465      50.267215      11           
     13000   52.384595      12.855411      4            
     14000   139.31567      34.15436       12           
     15000   100.69552      24.714657      5            
     16000   144.51095      35.447334      10           
     17000   203.98216      50.040174      11           
     18000   164.3333       40.178217      14           
     19000   111.85598      27.397324      8            
     20000   39.98498       9.8123634      4            
     21000   115.51902      28.335091      10           
     22000   53.490143      13.099468      5            
     23000   178.42936      43.457207      9            
     24000   56.823359      13.818524      6            
     25000   119.2107       29.253856      7            
     26000   173.27481      42.506368      11           
     27000   52.286417      12.829348      5            
     28000   121.32944      29.760503      9            
     29000   52.066456      12.763357      8            
     30000   171.16112      41.907428      8            
     31000   182.33185      44.736822      6            
     32000   147.99093      36.153209      9            
     33000   81.044848      19.229469      5            
     34000   93.436995      22.922946      9            
     35000   186.89041      45.830128      9            
     36000   152.92305      37.526413      7            
     37000   22.680317      5.5639909      4            
     38000   175.74845      43.100819      7            
     39000   75.670826      18.543078      8            
     40000   162.53127      39.831917      13           
     41000   141.57996      34.574517      12           
     42000   88.910055      21.781061      8            
     43000   93.039846      22.83073       5            
     44000   91.990651      22.568987      7            
     45000   101.23798      24.836851      7            
     46000   93.504753      22.943542      7            
     47000   114.81616      27.450143      12           
     48000   100.60119      24.681807      6            
     49000   125.34396      30.750433      8            
     50000   57.87617       14.2024        3            
     51000   106.44822      26.122371      4            
     52000   51.01118       12.516262      5            
     53000   148.58384      36.444785      8            
     54000   74.501003      18.281546      4            
     55000   156.74219      38.443342      11           
     56000   55.324509      13.577789      7            
     57000   111.64798      27.368673      6            
     58000   104.37104      25.608638      6            
     59000   126.56597      31.055378      9            
     60000   118.13201      28.978869      6            
     61000   114.37594      28.064322      9            
     62000   106.73179      26.181015      7            
     63000   62.973843      15.452024      5            
     64000   67.386075      16.533622      4            
     65000   97.211012      23.851661      5            
     66000   90.676535      22.242358      6            
     67000   131.94748      32.371545      7            
     68000   89.770418      22.027664      7            
     69000   65.712627      16.124663      6            
     70000   180.05833      44.152921      11           
     71000   108.97097      26.739846      7            
     72000   181.77213      44.606149      7            
     73000   128.58361      31.547443      8            
     74000   77.270018      18.909845      7            
     75000   137.28248      32.73728       11           
     76000   128.47169      31.146453      11           
     77000   105.90724      25.796603      5            
     78000   147.68069      36.088406      11           
     79000   89.636055      21.997687      6            
     80000   189.33361      46.4721        11           
     81000   187.62748      45.293646      11           
     82000   165.06867      40.493624      8            
     83000   62.26533       15.278693      4            
     84000   61.544535      15.100888      6            
     85000   82.470521      20.22252       8            
     86000   190.25722      46.595974      10           
     87000   137.45674      33.672278      8            
     88000   114.80302      28.160565      8            
     89000   41.264496      10.122407      4            
     90000   79.713707      19.55923       6            
     91000   179.59091      44.058519      10           
     92000   92.131042      22.569868      7            
     93000   142.29375      34.885047      7            
     94000   154.9411       37.556473      12           
     95000   193.46643      46.508913      12           
     96000   132.10539      31.704286      10           
     97000   138.6843       34.032633      5            
     98000   163.62711      39.83961       11           
     99000   159.68798      39.178429      8            
    100000   203.81439      49.910126      9            
    101000   127.58714      30.691275      9            
    102000   91.432412      22.438012      7            
    103000   85.104         20.885377      2            
    104000   116.18903      28.51041       7            
    105000   131.99806      32.392681      8            
    106000   150.31505      36.850132      13           
    107000   142.32951      34.606394      13           
    108000   98.650312      24.198024      9            
    109000   176.24277      43.006099      11           
    110000   192.21603      47.164286      11           
    111000   64.812613      15.884585      6            
    112000   77.84434       19.102951      3            
    113000   69.95055       16.881532      5            
    114000   99.136741      24.265624      6            
    115000   188.57749      46.249965      7            
    116000   180.03269      44.17955       8            
    117000   87.204294      21.399269      4            
    118000   165.86883      40.663835      10           
    119000   56.405107      13.840355      5            
    120000   165.00747      40.444843      8            
    121000   71.033624      17.430431      4            
    122000   165.1172       40.017083      11           
    123000   38.468675      9.4374081      5            
    124000   70.965522      17.411188      5            
    125000   108.90433      26.675918      9            
    126000   219.41278      53.826554      7            
    127000   151.04687      37.036587      10           
    128000   119.5689       29.325651      9            
    129000   200.78055      48.933839      13           
    130000   68.682285      16.843474      7            
    131000   57.488977      14.107396      7            
    132000   178.93206      43.115652      11           
    133000   154.36535      37.84807       12           
    134000   203.11093      50.982826      12           
    135000   306.44523      74.450768      13           
    136000   86.469431      21.215177      7            
    137000   171.29261      42.028969      6            
    138000   144.8083       35.454445      12           
    139000   145.45913      35.693175      6            
    140000   147.67616      36.166217      9            
    141000   19.90422       4.8837569      2            
    142000   87.442911      21.457118      6            
    143000   179.79395      43.691327      11           
    144000   182.84865      44.859535      10           
    145000   51.63885       12.673831      5            
    146000   167.4918       41.082567      11           
    147000   136.06153      33.378789      7            
    148000   194.79506      47.751153      9            
    149000   77.610616      18.967435      7            
    150000   101.56774      24.760366      8            
    151000   65.505503      16.07222       6            
    152000   188.68391      46.242083      9            
    153000   183.90544      44.698537      14           
    154000   112.64385      27.642149      7            
    155000   320.49753      78.63671       10           
    156000   157.12315      38.383452      12           
    157000   176.52122      43.312762      8            
    158000   142.09864      34.824858      9            
    159000   183.32441      44.96873       5            
    160000   64.969045      15.930291      2            
    161000   86.989813      21.346643      6            
    162000   155.27775      37.212282      12           
    163000   154.07029      37.775494      6            
    164000   167.30166      41.017857      10           
    165000   70.402058      17.275955      4            
    166000   196.35583      48.187138      5            
    167000   191.01271      46.733145      13           
    168000   179.3288       43.726972      12           
    169000   180.38018      44.156695      11           
    170000   139.87105      34.323259      6            
    171000   77.617846      19.046298      5            
    172000   161.94619      39.736138      7            
    173000   74.618028      18.274506      5            
    174000   83.628273      20.058993      6            
    175000   121.89608      29.886336      8            
    176000   99.823434      24.496021      7            
    177000   154.16436      37.818171      8            
    178000   159.81933      38.961847      10           
    179000   150.60084      36.949858      7            
    180000   166.23743      40.720449      15           
    181000   117.40221      28.812023      4            
    182000   68.392367      16.781852      5            
    183000   152.96756      37.538104      9            
    184000   175.13603      42.765722      7            
    185000   162.20998      39.803824      7            
    186000   125.65647      30.812197      6            
    187000   94.653479      23.214699      6            
    188000   158.1769       38.814669      6            
    189000   133.07571      32.622243      7            
    190000   139.39801      33.91227       10           
    191000   120.61773      29.456294      11           
    192000   172.85875      42.409344      11           
    193000   161.64442      39.654863      8            
    194000   80.292457      19.676809      4            
    195000   83.081211      20.385705      5            
    196000   49.314983      12.100216      5            
    197000   85.349401      20.926654      7            
    198000   70.201413      17.225758      5            
    199000   154.32252      37.065117      10           
    200000   79.391733      19.483764      7            
    201000   118.66814      29.107065      6            
    202000   140.66174      34.430345      9            
    203000   187.22094      45.916291      9            
    204000   104.89084      25.739407      5            
    205000   70.449695      17.24684       7            
    206000   195.96727      48.069266      12           
    207000   29.791387      7.3084194      5            
    208000   93.992026      23.051578      8            
    209000   23.154712      5.6809154      3            
    210000   95.94989       23.544826      6            
    211000   199.30384      48.87741       12           
    212000   116.68007      28.630189      7            
    213000   155.6044       37.549341      8            
    214000   119.29873      29.276414      7            
    215000   74.958781      18.379288      7            
    216000   52.277147      12.803373      5            
    217000   170.45389      41.818214      10           
    218000   135.89172      32.961965      13           
    219000   132.1415       32.374845      11           
    220000   163.8622       40.122914      12           
    221000   147.24443      36.1102        8            
    222000   7.7778469      1.907551       2            
    223000   17.142999      4.2053207      3            
    224000   59.050646      14.488013      5            
    225000   162.36908      39.797339      13           
    226000   88.578835      21.68784       7            
    227000   80.428648      19.635158      7            
    228000   72.407198      17.036145      8            
    229000   134.41558      32.920129      11           
    230000   129.11348      31.682965      8            
    231000   77.928344      18.297512      10           
    232000   55.548771      13.63165       2            
    233000   104.80441      25.704574      8            
    234000   206.01628      50.224757      12           
    235000   82.390541      20.217805      4            
    236000   102.49653      25.141059      6            
    237000   126.40372      31.016796      6            
    238000   135.87706      33.336454      9            
    239000   108.96959      26.737378      8            
    240000   100.65588      23.923071      11           
    241000   181.89267      44.107601      11           
    242000   92.503303      22.701657      7            
    243000   21.485512      5.2714059      3            
    244000   72.158798      17.623499      5            
    245000   90.311503      22.158145      7            
    246000   129.08779      31.493129      9            
    247000   192.13592      46.89198       12           
    248000   225.40125      55.196494      10           
    249000   69.6457        17.089178      6            
    250000   134.70464      32.906992      9            
    251000   177.90793      43.658272      9            
    252000   56.775875      13.932087      3            
    253000   186.31037      45.688964      8            
    254000   143.21102      34.318874      9            
    255000   87.760721      21.533742      7            
    256000   135.11157      33.075099      8            
    257000   90.55337       22.219969      7            
    258000   44.69437       10.966485      5            
    259000   201.2975       48.314596      14           
    260000   126.88281      31.136894      8            
    261000   119.20767      29.255705      8            
    262000   145.51991      35.708079      7            
    263000   163.27948      39.787785      7            
    264000   128.18105      31.450498      8            
    265000   91.404805      22.429652      6            
    266000   99.993126      24.530055      8            
    267000   74.081766      18.019922      7            
    268000   167.39997      41.080174      7            
    269000   68.258697      16.75087       2            
    270000   185.2693       45.0668        10           
    271000   88.907515      21.813289      4            
    272000   126.29037      30.980849      7            
    273000   100.80211      24.663092      10           
    274000   99.032371      24.300279      9            
    275000   127.58424      30.532584      12           
    276000   186.45518      45.621844      13           
    277000   133.29081      32.704855      8            
    278000   110.96555      27.234502      7            
    279000   85.411156      20.959374      5            
    280000   61.504138      15.093056      3            
    281000   173.40832      47.015913      10           
    282000   150.11053      36.180541      9            
    283000   46.929406      11.515486      3            
    284000   72.38715       17.762261      5            
    285000   57.327641      14.063151      4            
    286000   125.86048      30.847733      7            
    287000   113.15111      27.742405      10           
    288000   158.693        38.537296      11           
    289000   153.23164      37.588165      6            
    290000   130.61848      31.964794      10           
    291000   112.19419      27.513972      8            
    292000   161.20986      39.541472      11           
    293000   95.707838      23.476716      5            
    294000   187.82667      45.582551      9            
    295000   107.12682      26.288543      5            
    296000   202.28472      49.618967      9            
    297000   161.06259      39.498984      7            
    298000   183.37539      44.988228      11           
    299000   185.94899      45.632405      8            
    300000   170.96579      41.774636      12           
    301000   216.84771      53.011943      10           
    302000   59.322133      14.519376      10           
    303000   66.086824      16.200918      8            
    304000   102.73992      25.206812      8            
    305000   104.49273      25.053422      6            
    306000   183.93662      45.135884      10           
    307000   89.916287      22.063312      5            
    308000   190.08919      46.6437        8            
    309000   108.91932      26.664125      6            
    310000   154.19519      37.433098      7            
    311000   167.26776      41.035107      9            
    312000   22.698629      5.5694878      2            
    313000   75.973259      18.606001      7            
    314000   169.98078      41.713149      7            
    315000   197.17596      48.387271      6            
    316000   55.028429      13.50265       4            
    317000   168.4483       41.315086      12           
    318000   122.92758      30.161437      5            
    319000   127.728        31.322137      10           
    320000   116.42256      28.06868       10           
    321000   73.838788      18.118811      5            
    322000   82.882399      20.337873      6            
    323000   32.421803      7.9552019      3            
    324000   192.3951       46.726791      12           
    325000   44.985416      11.039736      1            
    326000   129.87344      31.822714      10           
    327000   37.047116      9.0909454      2            
    328000   107.61224      24.830579      7            
    329000   164.0999       40.242648      10           
    330000   83.103338      20.382329      8            
    331000   54.207216      13.298765      5            
    332000   89.349404      21.932104      8            
    333000   164.34918      39.530964      12           
    334000   109.73699      26.106769      3            
    335000   66.555885      16.331296      5            
    336000   66.329849      16.274972      5            
    337000   99.782417      24.362913      9            
    338000   69.038848      16.941373      7            
    339000   186.01428      45.648255      8            
    340000   100.73955      24.715734      5            
    341000   53.555183      13.140186      4            
    342000   154.53596      37.931742      9            
    343000   163.91985      39.254753      10           
    344000   45.243453      11.101548      4            
    345000   173.38246      42.551127      5            
    346000   94.204059      22.923388      8            
    347000   196.92478      47.883447      11           
    348000   154.90061      37.955993      10           
    349000   60.939452      14.947428      5            
    350000   153.81481      37.738632      6            
    351000   66.368129      16.284885      7            
    352000   36.69944       8.9830124      4            
    353000   143.15262      35.052092      9            
    354000   184.25951      45.188093      10           
    355000   134.43071      32.865692      8            
    356000   106.61437      26.098122      8            
    357000   207.56509      50.876638      12           
    358000   114.89945      28.103313      11           
    359000   102.90244      25.247961      9            
    360000   185.83871      45.605941      8            
    361000   215.03378      52.741978      9            
    362000   157.8407       38.598568      8            
    363000   185.68949      45.43776       14           
    364000   193.28064      46.953022      10           
    365000   181.43192      44.388331      11           
    366000   191.9232       48.117868      7            
    367000   80.059846      19.267044      7            
    368000   77.911418      18.9536        9            
    369000   163.37077      40.087527      10           
    370000   188.15161      45.660203      7            
    371000   78.473874      19.247065      11           
    372000   22.744968      5.5794936      3            
    373000   130.78379      32.733695      5            
    374000   155.95687      38.270146      6            
    375000   90.497312      22.205387      7            
    376000   92.356052      21.738092      5            
    377000   145.41771      35.278457      9            
    378000   54.653505      13.411903      2            
    379000   62.631583      15.353588      4            
    380000   82.938036      20.3514        5            
    381000   155.76266      38.213675      8            
    382000   88.459201      21.707198      7            
    383000   182.32079      44.724996      8            
    384000   117.28014      28.012606      8            
    385000   116.56818      28.60462       6            
    386000   192.85661      47.296477      8            
    387000   72.233548      17.723259      6            
    388000   43.231981      10.607794      4            
    389000   62.590199      15.358177      5            
    390000   183.78616      45.0979        8            
    391000   82.612463      20.271531      6            
    392000   119.69759      29.372679      6            
    393000   191.53261      46.974165      11           
    394000   92.674674      22.743797      6            
    395000   132.47451      32.502397      11           
    396000   173.12136      42.391477      11           
    397000   196.51038      47.756689      7            
    398000   64.536052      15.801506      9            
    399000   164.49101      40.35809       8            
    400000   121.54474      29.822729      6            
    401000   58.071131      14.250265      4            
    402000   169.5451       41.257828      10           
    403000   86.27835       21.094493      5            
    404000   82.386196      20.214867      6            
    405000   155.15554      38.067074      9            
    406000   49.214318      12.06821       4            
    407000   172.41982      42.246096      8            
    408000   148.80235      36.51129       7            
    409000   159.77414      39.113922      13           
    410000   140.18948      34.304095      6            
    411000   157.55579      38.658663      9            
    412000   180.46013      43.912611      12           
    413000   168.44714      40.52683       13           
    414000   156.13371      38.309138      7            
    415000   136.45486      33.484414      9            
    416000   147.52249      36.192418      11           
    417000   42.09916       10.329899      5            
    418000   181.01949      44.4136        11           
    419000   64.568933      15.81045       10           
    420000   152.34291      37.335819      10           
    421000   114.25073      28.000909      7            
    422000   73.619024      18.064787      5            
    423000   125.08162      30.232697      11           
    424000   153.20005      37.586656      8            
    425000   142.76885      35.008499      9            
    426000   168.30611      41.186952      10           
    427000   265.56693      64.017144      15           
    428000   91.127461      22.316465      7            
    429000   181.93037      44.356053      9            
    430000   89.652161      21.999668      4            
    431000   34.489343      8.4616516      4            
    432000   127.35626      31.213867      10           
    433000   133.87562      32.848055      4            
    434000   131.20329      32.099566      6            
    435000   178.70136      43.040298      12           
    436000   124.63083      30.539981      9            
    437000   175.66196      42.980996      15           
    438000   218.32841      53.553347      9            
    439000   184.0434       44.930566      10           
    440000   106.59049      26.153794      7            
    441000   206.2962       50.281373      12           
    442000   237.72804      57.996635      16           
    443000   115.50921      28.320452      9            
    444000   95.791686      23.507151      4            
    445000   198.09751      48.611339      6            
    446000   225.62863      56.46666       15           
    447000   189.61452      46.057609      15           
    448000   168.49783      41.325936      9            
    449000   79.123176      19.415521      6            
    450000   131.58759      32.284359      8            
    451000   168.57465      41.361241      13           
    452000   154.54961      37.915588      11           
    453000   98.899528      24.196086      9            
    454000   116.13804      28.500318      4            
    455000   182.30515      44.295134      11           
    456000   117.18607      28.745112      5            
    457000   128.74743      31.359959      7            
    458000   180.51608      44.287923      13           
    459000   54.95436       13.480179      6            
    460000   146.94257      35.925077      9            
    461000   125.14797      30.709566      8            
    462000   114.97884      28.21117       8            
    463000   159.53073      38.353553      8            
    464000   89.486223      21.946911      7            
    465000   170.0763       41.71824       13           
    466000   70.964721      17.35627       7            
    467000   123.63466      30.342884      6            
    468000   126.23066      30.940259      10           
    469000   170.09232      41.729328      10           
    470000   26.7953        6.5738604      3            
    471000   141.39921      34.700757      7            
    472000   149.58713      35.87889       9            
    473000   174.92176      42.921383      9            
    474000   97.929422      24.026946      6            
    475000   89.960238      22.076078      4            
    476000   150.3913       36.905643      6            
    477000   33.543104      8.2301999      3            
    478000   200.57917      49.205301      13           
    479000   170.8181       41.895529      11           
    480000   163.3016       40.030385      10           
    481000   144.01196      35.333514      9            
    482000   156.37205      38.368344      9            
    483000   85.536404      20.989361      7            
    484000   176.00869      43.174277      10           
    485000   131.79522      32.327487      10           
    486000   29.481294      7.1996099      5            
    487000   137.73672      33.796235      11           
    488000   159.73643      39.165526      9            
    489000   44.820587      10.998139      3            
    490000   86.02824       20.436137      4            
    491000   152.84021      37.499102      13           
    492000   158.89632      38.729925      11           
    493000   147.35564      36.154855      7            
    494000   148.43348      35.919319      7            
    495000   119.02463      28.542515      11           
    496000   100.83835      24.736043      8            
    497000   65.641393      16.105885      6            
    498000   139.07131      34.075642      9            
    499000   149.58018      36.306062      11           
    500000   192.81953      47.312526      10           
    501000   50.00153       12.083419      6            
    502000   153.67311      37.369151      9            
    503000   136.10097      33.399636      4            
    504000   172.32088      42.151976      9            
    505000   125.55868      30.148769      8            
    506000   114.76845      28.155877      10           
    507000   170.04106      41.700256      7            
    508000   125.1581       30.71393       9            
    509000   103.46913      25.35944       10           
    510000   189.98892      46.603352      9            
    511000   177.24142      43.491657      8            
    512000   193.64394      47.479308      14           
    513000   112.08774      26.618579      7            
    514000   102.34738      25.108499      7            
    515000   38.033152      9.3222508      4            
    516000   64.057986      15.711653      5            
    517000   171.45766      42.076492      6            
    518000   105.8073       25.053125      8            
    519000   149.8529       36.773797      5            
    520000   149.58507      36.027116      10           
    521000   140.90748      34.457141      11           
    522000   107.19517      26.300315      4            
    523000   127.8248       31.355454      9            
    524000   164.17089      40.282667      10           
    525000   180.74953      44.348398      11           
    526000   125.8046       30.432686      5            
    527000   125.49791      30.691081      8            
    528000   158.61077      38.790277      11           
    529000   144.95657      34.657593      8            
    530000   133.91875      32.825488      10           
    531000   86.908854      21.322754      7            
    532000   76.567237      18.785366      7            
    533000   79.17849       19.427403      8            
    534000   141.41605      34.701591      7            
    535000   116.97398      28.666171      9            
    536000   159.7896       39.206382      10           
    537000   65.464057      16.064567      7            
    538000   152.30639      37.366189      8            
    539000   89.70849       22.021584      7            
    540000   73.615628      18.064326      4            
    541000   74.108934      18.183775      8            
    542000   106.02245      26.016744      8            
    543000   144.77899      35.511025      9            
    544000   100.58933      24.602482      8            
    545000   112.00576      27.351344      10           
    546000   133.07353      32.654365      7            
    547000   106.42786      26.116316      6            
    548000   52.555257      12.888838      4            
    549000   64.936631      15.934877      3            
    550000   125.16046      29.383416      10           
    551000   120.96144      29.40047       11           
    552000   117.34558      28.69783       9            
    553000   78.85979       18.962033      7            
    554000   153.13005      37.481292      12           
    555000   199.76998      48.956339      9            
    556000   143.07133      34.283708      8            
    557000   105.96274      25.989677      9            
    558000   156.11793      37.256332      10           
    559000   54.442149      13.359996      7            
    560000   82.57164       20.261047      6            
    561000   131.89813      32.004232      13           
    562000   69.157172      16.969692      5            
    563000   171.34293      42.020908      10           
    564000   133.40355      32.736542      8            
    565000   68.678988      16.841196      6            
    566000   132.06384      32.408718      4            
    567000   44.043635      10.802531      7            
    568000   25.144025      6.1686978      4            
    569000   188.39355      46.232441      8            
    570000   76.650374      18.808539      4            
    571000   104.13856      25.148011      10           
    572000   33.56658       8.235458       4            
    573000   53.127202      13.034866      6            
    574000   192.50689      47.220001      12           
    575000   137.86665      33.486067      10           
    576000   171.23528      41.903111      11           
    577000   145.60233      35.713359      9            
    578000   151.39579      37.140347      7            
    579000   161.86583      39.541382      9            
    580000   30.590616      7.5058466      3            
    581000   146.44092      35.936644      5            
    582000   135.21153      33.178618      13           
    583000   98.543659      24.293201      6            
    584000   64.033596      15.707472      6            
    585000   136.62279      33.526804      6            
    586000   136.99549      33.605261      11           
    587000   98.205964      24.083519      7            
    588000   76.331755      18.730773      4            
    589000   114.71621      27.666414      7            
    590000   145.34485      35.621557      12           
    591000   143.2392       35.149092      7            
    592000   163.54575      40.124281      10           
    593000   138.85359      34.007078      11           
    594000   146.75079      35.994321      10           
    595000   163.3793       39.833125      11           
    596000   189.07396      46.353258      10           
    597000   57.187677      14.035294      6            
    598000   77.77078       19.074425      7            
    599000   52.089639      12.77633       5            
    600000   87.780702      21.540299      7            
    601000   34.384254      8.4357508      5            
    602000   101.70704      24.94087       11           
    603000   113.96377      27.964505      7            
    604000   129.82428      31.858236      9            
    605000   167.30848      41.000186      11           
    606000   73.12896       17.943628      6            
    607000   135.14105      33.162946      9            
    608000   155.60437      38.183536      9            
    609000   201.07835      49.310756      11           
    610000   142.92061      35.046077      8            
    611000   126.222        30.946053      9            
    612000   133.59076      32.781671      7            
    613000   152.09866      37.325866      4            
    614000   105.52862      25.881111      8            
    615000   119.85348      29.410492      6            
    616000   89.863446      22.046599      9            
    617000   171.68001      42.130495      6            
    618000   190.41821      46.706951      11           
    619000   183.024        44.907974      10           
    620000   168.94644      41.458725      6            
    621000   56.007299      13.742461      5            
    622000   187.4897       46.002235      8            
    623000   143.43184      35.197291      7            
    624000   133.0378       32.260387      11           
    625000   50.457135      12.376704      7            
    626000   53.830166      13.173889      8            
    627000   198.94374      48.822307      15           
    628000   118.9722       28.010134      9            
    629000   51.453474      12.623897      7            
    630000   165.82828      40.575365      7            
    631000   146.50996      35.909492      7            
    632000   96.003905      23.556989      7            
    633000   55.711183      13.670491      4            
    634000   154.01589      37.793521      10           
    635000   155.71091      38.190133      8            
    636000   92.816492      22.771163      7            
    637000   147.00967      35.635298      5            
    638000   80.950104      19.864758      3            
    639000   115.75563      28.26998       8            
    640000   77.566017      19.032497      10           
    641000   89.753575      21.971204      6            
    642000   82.287248      20.185378      5            
    643000   89.058249      21.854597      5            
    644000   143.16049      35.115834      8            
    645000   204.33145      49.779162      12           
    646000   31.353187      7.693341       2            
    647000   164.83574      40.443923      10           
    648000   52.870761      12.973763      6            
    649000   122.36832      30.028476      8            
    650000   43.50991       10.674676      6            
    651000   133.49587      32.739163      7            
    652000   178.59405      43.723068      10           
    653000   26.364678      6.4692561      2            
    654000   139.00174      33.691102      12           
    655000   147.68045      36.23896       8            
    656000   72.246149      17.726816      7            
    657000   47.149529      11.56899       4            
    658000   173.95454      42.667022      8            
    659000   154.06287      37.803926      9            
    660000   170.73704      41.902761      6            
    661000   147.11552      36.098212      7            
    662000   93.249137      22.755354      9            
    663000   78.893003      19.355336      6            
    664000   136.61639      33.310297      6            
    665000   142.20643      34.73373       10           
    666000   177.13103      42.93216       9            
    667000   149.26451      36.63102       7            
    668000   38.555439      9.4599456      4            
    669000   107.04803      26.271161      7            
    670000   19.006239      4.6633341      2            
    671000   56.352695      13.736188      6            
    672000   46.27549       11.35696       3            
    673000   174.71726      41.577728      9            
    674000   202.194        49.600693      9            
    675000   112.12773      27.508779      6            
    676000   187.14495      45.913339      14           
    677000   176.32406      42.828675      12           
    678000   148.96025      36.553105      7            
    679000   161.09102      39.480803      9            
    680000   67.131634      16.470874      8            
    681000   135.13273      32.279325      7            
    682000   78.164767      19.08954       8            
    683000   206.62524      50.127667      10           
    684000   99.802489      24.485083      8            
    685000   24.740769      6.016633       4            
    686000   279.48039      69.440864      14           
    687000   121.07682      29.709869      8            
    688000   151.61173      37.199387      9            
    689000   178.69711      43.852556      9            
    690000   128.39898      31.494449      9            
    691000   125.36736      30.767553      10           
    692000   121.46924      29.446042      9            
    693000   124.26978      30.495866      5            
    694000   161.86057      39.72262       8            
    695000   113.24721      27.717687      6            
    696000   196.91694      48.284757      11           
    697000   186.88244      45.852173      11           
    698000   94.646241      23.225807      4            
    699000   174.4024       42.801193      6            
    700000   76.185487      18.699279      6            
    701000   162.36008      39.840685      11           
    702000   145.10631      35.606576      8            
    703000   59.936147      14.682018      5            
    704000   21.998181      5.3971038      3            
    705000   132.24688      32.424         9            
    706000   122.27949      30.003325      9            
    707000   8.3477149      2.047463       2            
    708000   95.886613      23.527973      7            
    709000   163.46188      40.019536      11           
    710000   219.67635      53.903573      6            
    711000   99.505339      24.417702      5            
    712000   99.908641      23.777575      9            
    713000   100.08984      24.56039       6            
    714000   111.50315      27.359872      8            
    715000   65.217414      16.002165      6            
    716000   192.0524       46.237441      7            
    717000   47.905961      11.755389      3            
    718000   164.27308      40.311811      9            
    719000   185.58513      44.489383      10           
    720000   145.07252      35.580052      9            
    721000   151.20569      37.089194      9            
    722000   205.01807      50.088698      12           
    723000   117.00488      28.043636      9            
    724000   191.02356      46.865121      12           
    725000   120.42493      29.550075      6            
    726000   183.44722      44.044415      10           
    727000   101.98041      24.85232       11           
    728000   107.05277      26.2706        4            
    729000   55.579936      13.636728      6            
    730000   129.58521      31.725893      9            
    731000   128.90829      31.567137      10           
    732000   43.454861      10.660709      6            
    733000   122.52946      30.001415      8            
    734000   198.17003      48.626013      7            
    735000   86.131674      21.13198       8            
    736000   125.7298       30.829638      6            
    737000   182.60706      44.405583      9            
    738000   195.92736      48.075453      12           
    739000   208.91418      51.239304      14           
    740000   149.71715      36.559033      10           
    741000   51.630081      12.627165      7            
    742000   95.532413      23.433474      6            
    743000   62.965914      15.444681      9            
    744000   135.89155      33.341299      8            
    745000   202.27183      49.529335      11           
    746000   122.45607      30.043785      10           
    747000   128.07258      31.067238      10           
    748000   181.54433      44.541044      15           
    749000   63.393507      15.523576      5            
    750000   79.801258      19.582026      5            
    751000   83.791274      20.562614      9            
    752000   175.21829      42.778287      12           
    753000   329.25159      80.741049      8            
    754000   189.73411      46.528337      12           
    755000   146.40687      35.924098      6            
    756000   192.2962       47.18083       12           
    757000   168.55939      41.011602      13           
    758000   70.30192       17.250166      6            
    759000   159.18318      39.059741      5            
    760000   102.1498       25.068094      2            
    761000   194.76846      47.788378      9            
    762000   62.21774       15.267812      3            
    763000   155.95584      38.252594      10           
    764000   78.855779      19.18496       7            
    765000   102.94556      25.050188      9            
    766000   207.03696      50.773966      13           
    767000   150.30205      36.877152      11           
    768000   133.1585       32.665574      8            
    769000   158.88383      38.974451      10           
    770000   102.91797      25.23926       8            
    771000   97.807311      23.999129      7            
    772000   162.92079      39.954533      7            
    773000   178.51218      43.80772       4            
    774000   159.5649       39.144646      11           
    775000   42.631054      9.9937536      4            
    776000   115.26414      28.263375      7            
    777000   173.02496      42.429705      9            
    778000   107.66053      26.256359      10           
    779000   24.958514      6.1228649      4            
    780000   61.94604       15.184106      4            
    781000   139.31029      34.154728      10           
    782000   73.884767      18.143575      6            
    783000   92.854142      22.781061      9            
    784000   113.23881      27.784195      5            
    785000   60.335376      14.797195      6            
    786000   126.32966      30.993345      8            
    787000   148.57519      35.980729      8            
    788000   65.176666      15.995008      5            
    789000   83.26546       20.424209      8            
    790000   207.49575      50.426715      15           
    791000   148.88029      36.528939      12           
    792000   181.80142      44.616071      13           
    793000   27.268149      6.6765174      2            
    794000   35.304337      8.6619035      3            
    795000   83.161648      20.408251      4            
    796000   102.51906      24.550621      10           
    797000   185.76231      45.58606       11           
    798000   20.791033      5.0999613      4            
    799000   187.75934      46.052485      11           
    800000   146.26656      35.891211      8            
    801000   53.442614      13.001046      10           
    802000   266.7324       65.246854      10           
    803000   187.6379       45.995308      8            
    804000   151.66766      37.194208      10           
    805000   84.36447       20.480401      7            
    806000   127.87236      31.378829      8            
    807000   83.270271      20.434928      5            
    808000   58.819078      14.424622      5            
    809000   113.95076      27.947109      10           
    810000   169.60157      41.602475      12           
    811000   104.11925      25.470074      10           
    812000   163.73681      40.173797      9            
    813000   47.320311      11.60532       6            
    814000   193.20812      47.023585      13           
    815000   188.46415      45.442209      13           
    816000   80.566363      19.769582      4            
    817000   62.256523      15.277617      4            
    818000   167.44555      41.092674      11           
    819000   111.26647      27.286687      10           
    820000   91.108723      22.356833      5            
    821000   127.12971      31.206265      7            
    822000   39.290153      9.6401729      4            
    823000   120.33199      29.528467      9            
    824000   119.93123      29.401576      9            
    825000   75.336698      18.488891      7            
    826000   157.44705      38.171157      9            
    827000   174.25993      42.737247      10           
    828000   94.396946      23.102373      5            
    829000   163.04819      40.009688      9            
    830000   134.3468       31.955585      8            
    831000   122.18057      29.882647      9            
    832000   167.76789      41.165275      11           
    833000   103.44584      25.375456      6            
    834000   47.795935      11.232414      4            
    835000   178.24247      42.919036      9            
    836000   93.104712      22.847392      6            
    837000   102.77263      25.219416      5            
    838000   55.44562       13.604542      5            
    839000   82.170732      20.165697      7            
    840000   137.62064      33.513737      9            
    841000   65.656585      16.110544      4            
    842000   240.96521      59.040018      10           
    843000   42.511909      10.429971      4            
    844000   193.22958      47.354117      12           
    845000   79.038093      19.395765      5            
    846000   168.42581      40.52418       12           
    847000   176.6125       42.901276      11           
    848000   153.98064      37.754099      9            
    849000   139.60518      34.225871      6            
    850000   163.79199      40.155716      9            
    851000   159.5016       39.141555      5            
    852000   91.144974      22.326353      7            
    853000   81.223733      19.933294      7            
    854000   30.339035      7.4441343      5            
    855000   44.173759      10.837274      6            
    856000   113.95695      27.963424      6            
    857000   71.541491      17.472205      8            
    858000   94.118542      23.095639      7            
    859000   65.494027      16.060293      7            
    860000   150.94323      37.040645      6            
    861000   124.86298      29.895183      9            
    862000   172.89175      42.106255      15           
    863000   56.348287      13.827261      3            
    864000   159.56934      39.140455      10           
    865000   145.73282      35.688724      10           
    866000   138.72973      33.979406      10           
    867000   21.701328      5.324793       2            
    868000   201.392        48.236431      13           
    869000   92.565331      22.65712       12           
    870000   183.94708      45.111423      11           
    871000   57.714676      13.314062      5            
    872000   134.17629      32.147205      7            
    873000   97.676372      23.96998       3            
    874000   126.3882       31.017533      8            
    875000   191.49268      46.793282      13           
    876000   72.921956      17.893803      5            
    877000   133.41691      32.73506       9            
    878000   128.7431       30.962052      10           
    879000   178.61025      43.80329       12           
    880000   60.109547      14.40283       6            
    881000   59.14666       14.511989      7            
    882000   58.773094      14.42078       5            
    883000   80.620698      19.775017      6            
    884000   155.60401      38.171946      10           
    885000   121.19927      29.741035      7            
    886000   179.10406      43.836609      11           
    887000   110.37443      27.081341      7            
    888000   194.97684      47.851675      12           
    889000   110.3767       27.072167      9            
    890000   57.599039      14.058948      7            
    891000   205.69382      49.166284      14           
    892000   33.449222      8.2073681      3            
    893000   83.021174      20.36139       5            
    894000   161.95541      38.672596      8            
    895000   20.507912      5.0316537      3            
    896000   218.78315      52.988886      18           
    897000   189.00702      46.384516      8            
    898000   107.6166       25.720165      9            
    899000   139.97235      34.350708      5            
    900000   170.27625      41.695452      11           
    901000   266.00554      65.259093      11           
    902000   61.759581      15.139001      5            
    903000   163.00034      39.639229      11           
    904000   133.66086      31.944199      11           
    905000   97.870937      23.984085      8            
    906000   96.539159      23.687382      7            
    907000   184.07758      45.123483      14           
    908000   146.10677      35.847981      6            
    909000   123.64831      30.342549      10           
    910000   92.812821      22.645532      6            
    911000   61.618965      15.119963      4            
    912000   57.582763      14.129429      7            
    913000   160.56285      39.40137       6            
    914000   124.76361      30.616253      6            
    915000   160.82044      38.811002      12           
    916000   98.011911      24.045186      7            
    917000   79.594533      19.497861      6            
    918000   53.433509      13.113302      4            
    919000   136.63331      33.432837      9            
    920000   224.04603      54.903779      13           
    921000   149.8158       36.606341      11           
    922000   192.35045      47.190653      12           
    923000   122.14324      29.709049      10           
    924000   207.39232      49.973489      11           
    925000   225.61857      55.356894      9            
    926000   80.953464      19.865482      4            
    927000   76.155507      18.687182      5            
    928000   110.54275      26.262368      10           
    929000   111.69951      27.409211      6            
    930000   48.571511      11.917702      4            
    931000   63.862258      15.671125      4            
    932000   83.336229      19.968115      7            
    933000   178.98246      43.914554      7            
    934000   199.76744      48.921547      13           
    935000   37.155104      9.1106149      4            
    936000   278.96183      68.430861      13           
    937000   116.8144       28.657909      8            
    938000   180.02175      44.176771      6            
    939000   101.1236       24.813129      7            
    940000   63.790586      15.594074      7            
    941000   183.45567      44.961813      10           
    942000   180.91066      44.395138      8            
    943000   53.072008      13.021013      5            
    944000   133.43308      32.726671      10           
    945000   133.00685      32.52249       10           
    946000   60.037635      14.730265      6            
    947000   61.967068      15.130798      5            
    948000   146.28042      35.896686      7            
    949000   90.799676      22.265118      9            
    950000   62.384372      15.300068      5            
    951000   119.45698      28.553928      9            
    952000   62.965195      15.447036      8            
    953000   97.089421      23.824277      7            
    954000   151.62855      36.844682      11           
    955000   155.98468      38.262123      10           
    956000   238.79607      58.84272       14           
    957000   155.17526      37.936487      10           
    958000   49.947863      12.25594       4            
    959000   278.9594       68.062526      12           
    960000   21.367267      5.242219       4            
    961000   208.83312      51.204469      7            
    962000   145.89368      35.801379      6            
    963000   119.30948      29.277783      5            
    964000   143.70038      35.266942      6            
    965000   107.79478      25.990053      8            
    966000   197.96244      48.422669      10           
    967000   161.40825      39.608369      7            
    968000   95.066526      23.282757      8            
    969000   79.342172      19.461452      4            
    970000   129.34329      31.61785       6            
    971000   74.787394      18.347541      8            
    972000   154.51801      37.915166      9            
    973000   195.03365      47.853395      8            
    974000   141.53267      34.655247      7            
    975000   41.918534      10.283261      6            
    976000   50.920677      12.494433      4            
    977000   107.03977      26.265406      6            
    978000   177.36346      43.496238      8            
    979000   126.3211       30.652589      6            
    980000   46.89178       11.505462      4            
    981000   190.45276      46.70934       7            
    982000   76.716937      18.823064      8            
    983000   124.60105      30.549872      8            
    984000   152.60028      37.443553      6            
    985000   72.203927      17.675212      12           
    986000   124.85042      30.485003      9            
    987000   164.95121      40.473103      11           
    988000   202.02557      49.564495      9            
    989000   135.17847      33.002671      11           
    990000   169.29014      41.540149      6            
    991000   112.95862      27.708452      8            
    992000   186.64439      45.749083      15           
    993000   102.2165       25.082749      6            
    994000   90.804768      21.103286      8            
    995000   198.17216      48.534806      10           
    996000   92.203561      22.62491       7            
    997000   50.972836      12.506989      5            
    998000   41.679633      10.221837      6            
    999000   40.030513      9.8222624      3            
   1000000   120.31489      29.448703      9            
   1001000   189.77112      46.366622      12           
   1002000   111.11542      27.268486      6            
   1003000   61.54225       15.094545      5            
   1004000   176.00624      43.195773      8            
   1005000   73.999616      18.142305      8            
   1006000   142.0344       34.848762      10           
   1007000   70.889952      17.398692      5            
   1008000   115.95479      28.449359      7            
   1009000   180.55132      44.287801      11           
   1010000   191.76196      46.993342      10           
   1011000   93.165671      22.855743      8            
   1012000   115.68959      28.383921      7            
   1013000   69.327551      17.010926      6            
   1014000   47.88996       11.752347      8            
   1015000   109.11108      26.769177      6            
   1016000   146.29799      35.736858      10           
   1017000   81.146461      19.80693       7            
   1018000   91.655268      21.902726      13           
   1019000   99.107332      24.307722      10           
   1020000   1.9356547      0.47446388     1            
   1021000   164.90477      40.461114      6            
   1022000   172.98009      42.441368      13           
   1023000   21.911869      5.3770246      1            
   1024000   133.01998      32.622152      7            
   1025000   171.34246      41.997835      11           
   1026000   79.825145      19.544214      9            
   1027000   128.31967      31.487416      9            
   1028000   120.18259      29.242029      8            
   1029000   90.993402      21.927968      13           
   1030000   93.002389      22.802106      6            
   1031000   48.413375      11.238964      5            
   1032000   104.21401      25.57207       7            
   1033000   174.69686      42.78283       8            
   1034000   61.952369      15.202633      3            
   1035000   196.58311      48.228179      9            
   1036000   198.83908      48.460255      11           
   1037000   131.77436      32.337766      7            
   1038000   176.81911      43.379927      8            
   1039000   152.56194      37.348385      9            
   1040000   170.53073      41.815556      10           
   1041000   162.69096      39.836041      12           
   1042000   52.025435      12.747995      6            
   1043000   237.65897      58.309198      12           
   1044000   112.10214      27.509964      7            
   1045000   113.22233      27.783218      6            
   1046000   196.02395      48.095512      12           
   1047000   117.67284      28.8315        11           
   1048000   150.19435      36.860826      6            
   1049000   171.01515      43.01269       10           
   1050000   64.390035      15.551141      7            
   1051000   196.5652       48.237481      6            
   1052000   208.61228      50.700886      8            
   1053000   116.34051      28.480988      11           
   1054000   60.693773      14.892658      5            
   1055000   126.51079      31.043319      6            
   1056000   166.86963      40.942387      9            
   1057000   124.9444       30.660522      6            
   1058000   132.17035      31.662708      10           
   1059000   148.35896      36.404615      6            
   1060000   200.03281      49.078777      8            
   1061000   161.72575      39.60403       11           
   1062000   64.376619      15.797585      3            
   1063000   45.999651      11.286974      4            
   1064000   94.113064      23.090457      9            
   1065000   123.18289      30.228883      6            
   1066000   103.60521      25.424529      4            
   1067000   116.62504      28.44022       8            
   1068000   183.98361      45.135176      11           
   1069000   74.512958      18.201286      7            
   1070000   216.49197      53.123436      7            
   1071000   207.32465      50.778435      9            
   1072000   98.333883      24.129277      6            
   1073000   190.93288      46.371554      10           
   1074000   39.268438      9.6352831      4            
   1075000   136.16074      33.369954      7            
   1076000   31.885472      7.824142       2            
   1077000   97.717604      23.714812      7            
   1078000   159.88633      39.222702      12           
   1079000   298.62484      72.819117      8            
   1080000   67.29006       16.510848      6            
   1081000   163.52484      40.134982      11           
   1082000   135.16471      33.166657      4            
   1083000   201.94769      48.852213      13           
   1084000   94.807132      23.266127      8            
   1085000   213.9888       52.46142       12           
   1086000   158.14848      38.302796      9            
   1087000   178.47714      43.705742      13           
   1088000   174.52385      42.686746      7            
   1089000   171.17904      41.979414      9            
   1090000   96.730329      23.727888      8            
   1091000   121.09454      29.70059       9            
   1092000   131.48373      32.134734      12           
   1093000   67.828416      16.644523      4            
   1094000   90.375818      22.17421       7            
   1095000   86.679493      21.268984      6            
   1096000   165.02934      39.57651       13           
   1097000   174.43087      42.734376      15           
   1098000   115.24878      27.776632      11           
   1099000   132.07044      32.401576      8            
   1100000   193.5362       47.418857      13           
   1101000   162.98145      39.748054      13           
   1102000   44.058511      10.81038       4            
   1103000   26.142137      6.4136986      3            
   1104000   106.84979      25.978815      6            
   1105000   147.54848      36.199177      11           
   1106000   316.45641      77.468805      10           
   1107000   134.40003      32.737739      13           
   1108000   79.848461      19.591378      6            
   1109000   170.86303      41.696889      9            
   1110000   133.99302      32.859107      11           
   1111000   145.74376      35.741912      8            
   1112000   133.91759      32.861758      7            
   1113000   111.60658      27.269012      5            
   1114000   166.90187      40.919708      9            
   1115000   194.1867       47.644932      10           
   1116000   105.65648      25.881248      10           
   1117000   133.19225      32.323514      10           
   1118000   110.58044      27.127439      10           
   1119000   141.07205      34.598102      11           
   1120000   164.34077      40.295626      12           
   1121000   140.51059      34.483754      9            
   1122000   156.36896      38.355224      11           
   1123000   107.07257      26.262929      7            
   1124000   113.81576      27.92781       7            
   1125000   126.17175      30.961717      6            
   1126000   123.50221      30.30384       7            
   1127000   159.78177      38.522526      14           
   1128000   122.17942      29.968328      9            
   1129000   52.343947      12.841246      6            
   1130000   194.58429      47.74807       9            
   1131000   81.543657      19.978086      4            
   1132000   180.66051      44.333894      5            
   1133000   77.943031      19.124149      8            
   1134000   125.57388      30.787335      7            
   1135000   161.16729      39.078283      10           
   1136000   97.525602      23.927125      5            
   1137000   231.48668      56.240344      21           
   1138000   56.450003      13.852352      5            
   1139000   122.76712      30.121405      8            
   1140000   100.99103      24.781501      5            
   1141000   98.647132      24.135915      8            
   1142000   141.93993      34.822209      11           
   1143000   108.03195      26.507774      8            
   1144000   167.17964      40.764715      11           
   1145000   41.450896      10.172255      5            
   1146000   53.06503       13.005381      5            
   1147000   85.273048      20.923478      7            
   1148000   58.041243      14.242172      4            
   1149000   122.57492      30.076616      7            
   1150000   53.492262      13.098992      6            
   1151000   219.18743      52.810059      13           
   1152000   193.24739      47.426524      10           
   1153000   126.9221       31.133278      8            
   1154000   72.847332      17.865058      7            
   1155000   58.293963      14.303814      4            
   1156000   129.96556      31.714199      10           
   1157000   139.61902      34.248179      7            
   1158000   139.76016      34.294512      9            
   1159000   39.006493      9.5718883      2            
   1160000   140.26776      34.034492      12           
   1161000   144.00022      35.329169      11           
   1162000   127.57869      31.296254      9            
   1163000   122.00813      29.768114      6            
   1164000   107.09425      26.280508      7            
   1165000   107.18818      26.302871      8            
   1166000   103.54112      25.400847      7            
   1167000   97.270197      23.869563      4            
   1168000   176.40103      43.287523      10           
   1169000   95.389251      23.406217      6            
   1170000   113.67871      27.7984        8            
   1171000   193.23538      47.265466      11           
   1172000   180.96734      44.386261      10           
   1173000   191.69458      47.036713      10           
   1174000   52.526343      12.887927      4            
   1175000   169.79872      41.664619      8            
   1176000   152.59487      37.441611      10           
   1177000   193.86107      47.476072      8            
   1178000   77.753815      19.072913      7            
   1179000   36.050905      8.84534        4            
   1180000   146.11408      35.747271      10           
   1181000   155.29396      38.065503      7            
   1182000   118.114        28.98926       6            
   1183000   168.50444      41.207536      11           
   1184000   88.014516      21.597894      5            
   1185000   177.38511      43.531212      6            
   1186000   131.48607      32.199473      9            
   1187000   184.38142      45.24944       10           
   1188000   89.812273      22.037264      7            
   1189000   67.801586      16.633096      8            
   1190000   192.51038      47.240049      4            
   1191000   196.56589      48.23467       8            
   1192000   107.63602      26.406719      7            
   1193000   126.54821      30.912607      11           
   1194000   69.820833      17.131986      5            
   1195000   181.2102       44.469907      7            
   1196000   123.56981      30.295082      7            
   1197000   77.917176      19.118893      7            
   1198000   120.80828      29.64414       8            
   1199000   154.40417      37.857948      10           
   1200000   144.81076      35.529345      10           
   1201000   213.53297      51.021534      12           
   1202000   86.062077      21.118381      5            
   1203000   62.335354      15.290425      8            
   1204000   113.88695      27.938973      7            
   1205000   172.10885      42.230135      10           
   1206000   146.25438      35.627826      13           
   1207000   41.957915      10.293383      6            
   1208000   107.22672      26.314028      7            
   1209000   171.76882      42.147529      11           
   1210000   105.33801      25.851707      5            
   1211000   145.30196      35.660817      6            
   1212000   163.47069      40.075727      11           
   1213000   98.66838       23.670273      7            
   1214000   47.682391      11.131634      4            
   1215000   162.73408      39.901977      9            
   1216000   145.5544       35.713217      13           
   1217000   69.552079      19.346178      6            
   1218000   102.33749      25.096934      9            
   1219000   156.60346      38.430866      6            
   1220000   67.012077      16.241546      4            
   1221000   142.53799      34.979305      6            
   1222000   150.41904      36.905229      8            
   1223000   39.693061      9.7334924      4            
   1224000   60.147093      14.755354      3            
   1225000   86.146125      21.137085      8            
   1226000   192.62314      47.200356      11           
   1227000   30.927024      7.5886721      2            
   1228000   133.20974      32.641196      6            
   1229000   109.00864      26.745915      5            
   1230000   144.30211      35.300899      12           
   1231000   99.30718       24.32534       7            
   1232000   184.76783      45.339038      7            
   1233000   100.73997      24.702819      7            
   1234000   170.99786      41.94604       7            
   1235000   48.152153      11.811335      6            
   1236000   184.95548      45.242879      13           
   1237000   67.586488      16.582673      6            
   1238000   288.39316      69.969049      8            
   1239000   92.397656      22.673544      5            
   1240000   159.96582      39.25375       9            
   1241000   38.326389      9.3983209      5            
   1242000   169.16712      41.404586      10           
   1243000   163.50137      40.119456      13           
   1244000   80.956363      19.865302      7            
   1245000   184.65622      45.291368      10           
   1246000   33.869855      8.3123234      4            
   1247000   165.30335      40.560323      9            
   1248000   30.497662      7.4827967      3            
   1249000   117.59476      28.863335      7            
   1250000   193.93647      47.587674      10           
   1251000   65.349598      16.03511       7            
   1252000   209.95109      50.595114      17           
   1253000   40.173885      9.8578367      3            
   1254000   261.66879      64.214824      6            
   1255000   96.91805       23.605964      5            
   1256000   79.77097       19.575077      7            
   1257000   48.022398      11.783459      4            
   1258000   169.78889      41.66562       7            
   1259000   136.35721      33.231435      8            
   1260000   147.21223      35.892487      7            
   1261000   90.332593      22.147558      9            
   1262000   144.44125      34.420641      13           
   1263000   139.29896      34.15203       9            
   1264000   197.41578      48.392414      16           
   1265000   90.327436      22.162509      6            
   1266000   175.25737      42.98633       10           
   1267000   138.13366      33.895778      7            
   1268000   93.593172      22.913265      7            
   1269000   178.05702      43.686961      8            
   1270000   154.66231      37.95318       6            
   1271000   56.219069      13.793937      6            
   1272000   246.99082      60.606801      9            
   1273000   3.495408       0.85725654     1            
   1274000   122.9605       30.157513      8            
   1275000   62.639458      15.367358      7            
   1276000   143.04374      35.021537      8            
   1277000   102.5264       25.003597      12           
   1278000   121.65762      29.851928      7            
   1279000   96.63956       23.711501      7            
   1280000   90.431763      22.17265       6            
   1281000   168.31226      41.301772      9            
   1282000   199.18683      48.407647      13           
   1283000   63.636016      15.615694      5            
   1284000   120.37735      29.516619      9            
   1285000   96.592808      23.693672      6            
   1286000   153.93593      37.624576      19           
   1287000   155.74546      38.21434       8            
   1288000   110.64684      27.14202       10           
   1289000   194.16787      47.602576      10           
   1290000   171.574        42.109773      11           
   1291000   157.1994       38.563129      12           
   1292000   133.28048      32.704142      9            
   1293000   92.184695      22.608789      5            
   1294000   178.5809       43.710299      11           
   1295000   187.49354      45.248818      11           
   1296000   168.90117      41.428653      12           
   1297000   103.73638      25.243717      10           
   1298000   109.44746      26.833053      6            
   1299000   108.45427      25.814879      5            
   1300000   75.06929       18.41567       5            
   1301000   69.893196      17.150088      5            
   1302000   202.17291      49.226019      11           
   1303000   208.33177      51.126855      8            
   1304000   125.18955      30.701586      10           
   1305000   104.54356      25.568486      11           
   1306000   183.48542      45.012722      9            
   1307000   173.3919       42.545365      9            
   1308000   117.15019      28.693         8            
   1309000   192.80784      47.022009      10           
   1310000   78.331293      19.221782      4            
   1311000   103.64999      25.432479      7            
   1312000   133.49712      32.757683      10           
   1313000   158.82317      38.973458      8            
   1314000   87.469249      21.465748      6            
   1315000   130.63994      32.05345       7            
   1316000   116.72894      28.629665      8            
   1317000   146.55787      44.830128      10           
   1318000   61.749412      15.114008      6            
   1319000   151.7751       37.209858      7            
   1320000   109.11457      26.775033      10           
   1321000   199.95371      49.064677      9            
   1322000   134.65455      33.020357      8            
   1323000   185.01663      44.963967      13           
   1324000   177.93652      43.661652      8            
   1325000   61.39923       15.067897      5            
   1326000   52.618813      12.900887      8            
   1327000   61.959766      15.195746      6            
   1328000   93.296734      22.887565      4            
   1329000   113.98897      27.967279      5            
   1330000   184.93719      45.382866      6            
   1331000   36.373894      8.9236668      5            
   1332000   120.74431      29.604823      11           
   1333000   143.89095      34.601404      9            
   1334000   51.316195      12.578989      5            
   1335000   110.27992      27.061163      8            
   1336000   167.4126       41.032176      12           
   1337000   190.24778      46.665201      9            
   1338000   86.855119      21.28109       9            
   1339000   132.44904      32.031739      9            
   1340000   88.599759      21.742937      2            
   1341000   91.557228      22.466566      5            
   1342000   152.93162      37.51865       10           
   1343000   143.05029      35.092231      8            
   1344000   24.497145      6.0097167      3            
   1345000   143.31544      35.137119      9            
   1346000   106.86613      26.227055      6            
   1347000   197.93865      48.571743      10           
   1348000   128.20721      31.397343      7            
   1349000   149.21526      36.605286      12           
   1350000   81.049428      19.88405       6            
   1351000   60.646672      14.881142      5            
   1352000   97.328647      23.882093      8            
   1353000   150.00961      36.734929      8            
   1354000   128.07997      31.430944      6            
   1355000   45.296971      11.109876      5            
   1356000   157.76276      38.604749      8            
   1357000   244.24772      59.477881      13           
   1358000   59.488206      14.597849      3            
   1359000   165.05032      40.501072      9            
   1360000   39.725597      9.7470438      4            
   1361000   98.11331       23.408956      8            
   1362000   143.21463      35.041126      9            
   1363000   163.20921      40.010593      12           
   1364000   187.02151      45.899345      13           
   1365000   121.00004      29.69258       6            
   1366000   40.713258      9.9891534      5            
   1367000   154.73407      37.801886      10           
   1368000   143.50014      35.200959      9            
   1369000   16.388678      4.0210106      2            
   1370000   47.911846      11.755502      6            
   1371000   184.72988      45.270961      9            
   1372000   94.41993       23.135224      8            
   1373000   193.58356      47.455073      14           
   1374000   122.42442      29.417645      8            
   1375000   157.98771      38.768199      10           
   1376000   113.51515      27.79193       7            
   1377000   130.37266      31.952601      7            
   1378000   78.033997      19.147165      7            
   1379000   200.42017      49.047096      15           
   1380000   127.71067      31.053299      11           
   1381000   179.61919      44.077101      3            
   1382000   173.93655      41.833135      15           
   1383000   92.637908      22.024737      7            
   1384000   168.56071      41.311907      11           
   1385000   301.39046      72.549873      16           
   1386000   148.41097      36.419488      10           
   1387000   178.36285      42.878659      13           
   1388000   145.45244      35.693696      9            
   1389000   96.375775      23.64918       5            
   1390000   35.366499      8.677097       5            
   1391000   25.04832       6.1338157      5            
   1392000   22.760503      5.5833278      4            
   1393000   154.93553      38.011138      11           
   1394000   97.549956      23.931264      9            
   1395000   86.265564      21.167193      6            
   1396000   102.78628      25.221035      7            
   1397000   76.324751      18.728469      4            
   1398000   143.95492      35.179036      10           
   1399000   85.489046      20.979191      4            
   1400000   149.78299      36.711118      11           
   1401000   55.274639      13.355025      5            
   1402000   106.71946      26.17654       9            
   1403000   95.004454      23.312215      6            
   1404000   165.64216      40.400305      14           
   1405000   46.591019      11.43188       5            
   1406000   174.50079      42.45402       13           
   1407000   59.218288      14.52727       7            
   1408000   122.45218      29.917946      8            
   1409000   122.20438      29.978255      8            
   1410000   165.9734       40.489301      10           
   1411000   66.762784      16.38095       6            
   1412000   62.36835       15.297279      4            
   1413000   190.85711      46.836179      13           
   1414000   131.15967      32.173076      10           
   1415000   163.62167      40.136068      9            
   1416000   171.48129      41.72744       11           
   1417000   164.00899      40.214799      10           
   1418000   126.20574      30.968899      9            
   1419000   152.27282      37.198188      13           
   1420000   222.47143      54.301193      6            
   1421000   162.32135      39.813733      11           
   1422000   151.78664      37.253         6            
   1423000   192.1909       46.830558      11           
   1424000   158.70434      38.885358      10           
   1425000   72.755559      17.845177      7            
   1426000   174.86669      41.518485      12           
   1427000   191.1527       46.904102      8            
   1428000   143.94088      35.058617      8            
   1429000   118.51517      28.579521      9            
   1430000   86.604868      21.236634      7            
   1431000   160.8555       39.439495      11           
   1432000   152.56894      37.440123      5            
   1433000   133.97024      32.730753      9            
   1434000   160.41932      39.359653      7            
   1435000   82.153961      20.052339      8            
   1436000   188.50596      46.213237      9            
   1437000   141.24438      34.661384      8            
   1438000   96.842515      23.765535      9            
   1439000   173.53474      42.54196       13           
   1440000   91.52231       22.328123      7            
   1441000   32.758771      8.037605       3            
   1442000   56.976714      13.97738       7            
   1443000   43.805239      10.719954      7            
   1444000   87.167822      21.378776      8            
   1445000   51.160486      12.502029      4            
   1446000   155.12418      38.044526      12           
   1447000   107.91778      26.477724      9            
   1448000   196.82723      48.241604      14           
   1449000   104.75008      25.692139      5            
   1450000   22.854831      5.6076366      3            
   1451000   144.26477      35.318834      7            
   1452000   140.21532      34.399225      7            
   1453000   170.63891      41.802622      12           
   1454000   128.11404      30.853867      12           
   1455000   88.681562      21.751246      6            
   1456000   136.81741      33.575566      4            
   1457000   49.483907      12.142025      4            
   1458000   162.72907      39.892407      11           
   1459000   152.32518      37.374724      6            
   1460000   201.28148      48.380331      15           
   1461000   146.07767      35.83876       9            
   1462000   145.18168      35.416152      10           
   1463000   97.950329      24.013468      11           
   1464000   47.843177      11.723468      6            
   1465000   37.460094      9.1910316      4            
   1466000   177.3853       43.383493      7            
   1467000   63.020554      15.420815      6            
   1468000   164.11986      40.231906      12           
   1469000   68.737177      16.865259      6            
   1470000   30.867033      7.5715011      6            
   1471000   136.51949      33.502026      6            
   1472000   109.80765      26.944155      8            
   1473000   144.42443      35.44082       7            
   1474000   40.191623      9.8626768      2            
   1475000   115.18709      28.265544      8            
   1476000   90.007408      22.079293      9            
   1477000   158.27407      38.840876      10           
   1478000   119.45484      29.313533      7            
   1479000   176.90759      43.394244      9            
   1480000   88.593567      21.373088      5            
   1481000   120.78588      29.603211      11           
   1482000   115.07914      28.193471      9            
   1483000   123.91782      30.400366      8            
   1484000   133.61344      32.78438       4            
   1485000   98.16757       23.202892      8            
   1486000   171.09822      41.96835       15           
   1487000   148.67075      36.470833      13           
   1488000   116.42347      28.571983      4            
   1489000   186.23742      45.702102      9            
   1490000   113.38443      27.823714      10           
   1491000   135.2928       33.198708      7            
   1492000   130.18556      31.787619      9            
   1493000   154.23622      37.84601       7            
   1494000   160.95494      39.485661      10           
   1495000   85.690275      21.027241      5            
   1496000   86.875026      21.317522      6            
   1497000   84.810384      20.809833      7            
   1498000   189.78539      46.32252       11           
   1499000   73.986867      18.142994      7            
   1500000   191.63898      47.026193      11           
   1501000   97.861341      23.439357      9            
   1502000   192.61671      47.267464      8            
   1503000   124.81167      30.565226      10           
   1504000   102.63589      25.144964      7            
   1505000   176.38864      42.495412      10           
   1506000   181.33268      44.262325      12           
   1507000   41.55959       10.18933       8            
   1508000   174.64818      42.834251      14           
   1509000   140.92392      34.572077      7            
   1510000   79.415877      19.470271      8            
   1511000   164.92272      40.446262      11           
   1512000   95.20671       23.350079      9            
   1513000   78.844691      19.345931      8            
   1514000   138.63105      33.902726      10           
   1515000   132.98751      32.618191      11           
   1516000   196.36724      47.426671      14           
   1517000   181.28919      43.714162      13           
   1518000   129.36287      31.729114      8            
   1519000   111.43284      27.335454      9            
   1520000   176.91683      43.387327      11           
   1521000   130.84011      32.105682      9            
   1522000   45.923979      11.268303      5            
   1523000   137.27877      33.693069      8            
   1524000   58.653096      14.378935      7            
   1525000   115.52355      28.348416      6            
   1526000   172.1903       42.232947      9            
   1527000   63.624119      15.611171      5            
   1528000   172.94505      42.444404      8            
   1529000   119.82383      29.386118      8            
   1530000   152.15024      37.33572       7            
   1531000   191.95686      46.993966      12           
   1532000   182.3993       44.756676      8            
   1533000   105.65249      25.89405       9            
   1534000   105.88049      25.980903      7            
   1535000   156.48832      38.258664      9            
   1536000   78.381708      19.233561      5            
   1537000   68.493749      16.807943      6            
   1538000   199.51396      48.051938      10           
   1539000   124.31026      30.498957      11           
   1540000   209.36977      51.175635      5            
   1541000   119.80644      29.398125      8            
   1542000   157.74656      38.690115      12           
   1543000   52.805396      12.956747      5            
   1544000   195.63055      47.988232      7            
   1545000   58.127987      14.261971      7            
   1546000   96.520782      23.682248      5            
   1547000   187.00094      44.500435      14           
   1548000   199.70109      48.991134      8            
   1549000   74.467716      18.25934       4            
   1550000   29.056611      7.1274905      5            
   1551000   164.72801      40.400121      9            
   1552000   111.16109      27.27618       9            
   1553000   179.17756      43.134236      12           
   1554000   124.71422      30.541632      8            
   1555000   80.825408      19.380501      8            
   1556000   36.496489      8.9544015      4            
   1557000   143.60694      34.895661      10           
   1558000   194.06008      47.556903      10           
   1559000   174.63897      42.519867      8            
   1560000   131.86041      32.216236      10           
   1561000   95.128448      23.337263      5            
   1562000   61.752779      15.149811      6            
   1563000   168.76262      41.400695      8            
   1564000   126.35821      30.997346      10           
   1565000   128.09059      31.431778      9            
   1566000   191.24605      46.920021      10           
   1567000   11.378553      2.7913815      2            
   1568000   89.832706      21.870771      6            
   1569000   50.296845      12.341285      6            
   1570000   107.0332       26.252068      6            
   1571000   162.4921       39.777716      9            
   1572000   92.353832      22.662647      5            
   1573000   147.42693      36.166252      9            
   1574000   129.11242      31.653632      7            
   1575000   121.44618      29.772345      8            
   1576000   197.77021      47.606541      12           
   1577000   108.89627      26.722366      9            
   1578000   119.84861      29.23194       9            
   1579000   180.3941       43.135151      5            
   1580000   64.712908      15.864762      10           
   1581000   180.38695      44.262314      8            
   1582000   57.994975      14.230118      5            
   1583000   85.17256       20.892723      5            
   1584000   169.40213      41.515965      12           
   1585000   101.19104      24.832379      3            
   1586000   32.631605      8.0059271      4            
   1587000   147.7322       36.239225      8            
   1588000   181.98764      44.504463      10           
   1589000   84.392852      20.706448      7            
   1590000   102.65616      25.189292      7            
   1591000   81.12534       19.86334       9            
   1592000   146.87931      35.966936      8            
   1593000   117.24277      28.733427      10           
   1594000   166.86648      40.936733      10           
   1595000   132.54892      32.514248      8            
   1596000   112.01166      27.484342      9            
   1597000   30.793879      7.5453729      6            
   1598000   89.849732      22.020477      8            
   1599000   129.14129      31.689612      9            
   1600000   82.859338      20.324438      5            
   1601000   100.08649      24.522971      9            
   1602000   81.228546      19.600135      11           
   1603000   122.56403      30.032435      8            
   1604000   170.68211      41.822892      15           
   1605000   70.549402      16.957203      7            
   1606000   139.46498      34.224382      5            
   1607000   148.21099      36.363416      10           
   1608000   123.22832      30.230475      9            
   1609000   104.37229      25.610021      5            
   1610000   64.454658      15.802499      6            
   1611000   165.84094      40.689724      8            
   1612000   160.72755      39.256666      9            
   1613000   106.54027      26.146753      7            
   1614000   88.317763      21.672173      4            
   1615000   164.55013      40.376355      11           
   1616000   108.30114      26.569916      7            
   1617000   167.96522      41.004644      11           
   1618000   132.17307      31.800077      13           
   1619000   175.3966       43.033818      12           
   1620000   116.30727      28.376685      9            
   1621000   125.37284      30.74705       7            
   1622000   132.454        31.905639      10           
   1623000   152.99621      37.466113      8            
   1624000   35.984949      8.8294997      4            
   1625000   106.80466      26.206604      7            
   1626000   68.292559      16.753159      6            
   1627000   76.105452      18.666264      7            
   1628000   144.43983      35.428067      8            
   1629000   121.14938      29.71587       8            
   1630000   81.98243       20.091797      9            
   1631000   78.777602      19.330338      5            
   1632000   33.476767      8.2140585      3            
   1633000   19.631174      4.8166862      2            
   1634000   44.114121      10.824023      4            
   1635000   158.28171      38.84216       6            
   1636000   172.64756      42.324621      10           
   1637000   222.55053      54.439555      13           
   1638000   46.97024       11.51807       4            
   1639000   163.35236      40.035537      12           
   1640000   68.187121      16.731601      8            
   1641000   187.81059      46.043663      12           
   1642000   35.356757      8.6751245      4            
   1643000   134.76488      32.704786      9            
   1644000   194.31513      47.613788      6            
   1645000   141.12193      34.603181      12           
   1646000   205.04962      50.280143      12           
   1647000   146.38169      35.900192      9            
   1648000   97.091538      23.824633      11           
   1649000   36.608837      8.981016       4            
   1650000   106.12181      26.032542      5            
   1651000   82.278904      20.196648      6            
   1652000   174.87576      42.881433      13           
   1653000   180.36792      44.258298      11           
   1654000   136.13452      33.406901      6            
   1655000   50.0338        12.261238      6            
   1656000   97.713414      23.978176      5            
   1657000   121.29459      29.767449      9            
   1658000   57.119502      14.012479      8            
   1659000   71.377841      17.515337      4            
   1660000   207.73417      50.864588      13           
   1661000   116.28255      28.532439      6            
   1662000   72.547864      17.751456      8            
   1663000   128.70182      31.578995      9            
   1664000   58.602625      14.377398      7            
   1665000   116.95462      28.686947      7            
   1666000   70.942493      17.366629      7            
   1667000   198.15815      48.202461      12           
   1668000   168.83052      41.422989      5            
   1669000   66.087304      16.21564       6            
   1670000   189.28792      46.445164      14           
   1671000   59.940223      14.707595      7            
   1672000   144.26484      35.398535      10           
   1673000   124.08809      30.451007      10           
   1674000   130.19598      31.905156      5            
   1675000   106.94345      26.21471       6            
   1676000   35.170823      8.6304774      5            
   1677000   76.583029      18.68411       7            
   1678000   170.01853      41.546701      10           
   1679000   111.50493      27.345342      7            
   1680000   123.23973      30.243078      6            
   1681000   123.53518      30.311892      8            
   1682000   197.10227      47.919211      11           
   1683000   205.15693      50.334139      11           
   1684000   139.81047      34.30792       8            
   1685000   146.58186      35.964413      6            
   1686000   100.75984      24.725033      6            
   1687000   123.8803       30.247936      10           
   1688000   127.36125      31.244177      10           
   1689000   52.750726      12.944181      4            
   1690000   142.25715      34.908137      7            
   1691000   134.06872      32.893377      9            
   1692000   151.07542      37.057268      10           
   1693000   149.50685      36.686045      8            
   1694000   131.59059      32.289774      5            
   1695000   152.73863      37.460124      10           
   1696000   193.98522      47.602632      8            
   1697000   60.321684      14.801599      4            
   1698000   211.95626      51.899765      12           
   1699000   60.225657      13.829166      7            
   1700000   195.9293       47.902171      11           
   1701000   113.03184      27.042466      10           
   1702000   114.02156      27.957294      8            
   1703000   71.077561      17.438618      4            
   1704000   78.316592      19.217406      5            
   1705000   77.55372       19.030484      6            
   1706000   96.952628      23.790191      7            
   1707000   170.74511      41.903106      2            
   1708000   148.85289      35.712263      10           
   1709000   33.294593      8.1695888      4            
   1710000   77.229445      18.926289      5            
   1711000   177.97483      42.858367      13           
   1712000   62.456961      15.324036      3            
   1713000   124.2235       30.231655      9            
   1714000   150.46645      36.923874      9            
   1715000   76.30753       18.722324      7            
   1716000   114.4246       28.075853      10           
   1717000   159.41346      39.104484      7            
   1718000   150.7163       35.956474      6            
   1719000   141.92668      34.823436      9            
   1720000   91.115203      22.333697      7            
   1721000   124.12758      30.448534      11           
   1722000   191.44912      46.979966      11           
   1723000   180.02187      44.159629      9            
   1724000   115.19297      28.256581      6            
   1725000   39.752924      9.7506062      5            
   1726000   24.093662      5.9087918      3            
   1727000   139.78422      34.297394      8            
   1728000   103.71259      24.630412      9            
   1729000   216.92626      53.071368      9            
   1730000   55.534212      13.616277      7            
   1731000   19.618452      4.811911       3            
   1732000   182.40874      44.200435      12           
   1733000   101.59869      24.031695      9            
   1734000   167.02935      40.982396      11           
   1735000   109.02407      26.74523       7            
   1736000   95.796868      23.504614      10           
   1737000   123.48527      29.693724      12           
   1738000   103.04087      25.284579      6            
   1739000   200.35519      48.601498      11           
   1740000   179.7318       43.698018      13           
   1741000   246.23932      60.071288      14           
   1742000   179.8219       44.119709      12           
   1743000   191.31771      46.892254      11           
   1744000   90.153706      22.122656      5            
   1745000   102.8358       25.236153      7            
   1746000   136.94729      33.602695      9            
   1747000   15.805077      3.8777586      3            
   1748000   197.22034      48.26914       14           
   1749000   137.92706      33.849196      7            
   1750000   81.493974      19.975371      8            
   1751000   117.74587      28.667439      11           
   1752000   167.79249      41.154127      11           
   1753000   106.30583      26.08731       8            
   1754000   146.07876      34.975757      7            
   1755000   205.86359      50.458995      11           
   1756000   74.149664      18.196648      2            
   1757000   195.66647      47.956324      15           
   1758000   187.25705      45.94748       9            
   1759000   182.88574      44.670218      12           
   1760000   61.563836      15.104235      7            
   1761000   193.16262      47.123627      7            
   1762000   96.635164      23.509091      9            
   1763000   183.90643      45.129011      7            
   1764000   188.43283      46.143158      12           
   1765000   108.98195      26.547717      13           
   1766000   142.97052      33.57594       9            
   1767000   21.764869      5.3409489      1            
   1768000   121.89666      29.912701      5            
   1769000   55.613033      13.625263      4            
   1770000   64.137144      15.7347        7            
   1771000   161.02098      39.496644      7            
   1772000   158.94252      39.592463      8            
   1773000   154.93823      37.775416      14           
   1774000   161.05222      39.298916      16           
   1775000   186.39749      45.734641      8            
   1776000   60.82969       14.918194      4            
   1777000   193.38135      47.228726      11           
   1778000   106.82619      26.185885      7            
   1779000   134.83892      33.076784      10           
   1780000   171.48151      42.063692      9            
   1781000   147.20322      35.733463      9            
   1782000   166.88966      40.958209      8            
   1783000   155.48791      38.105801      12           
   1784000   64.682965      15.219324      7            
   1785000   105.32128      25.840835      8            
   1786000   143.81819      35.292421      5            
   1787000   148.50123      36.326563      12           
   1788000   132.24503      32.444477      6            
   1789000   180.30272      43.76623       13           
   1790000   38.401498      9.4205549      6            
   1791000   47.854216      11.742005      5            
   1792000   137.99735      33.864164      6            
   1793000   91.517594      22.45617       5            
   1794000   165.98784      40.73494       7            
   1795000   117.5626       28.848435      8            
   1796000   195.69034      47.258873      14           
   1797000   264.45283      64.898865      5            
   1798000   157.79718      38.722617      9            
   1799000   59.782293      14.66886       5            
   1800000   172.04657      40.719458      10           
   1801000   91.742383      22.512899      6            
   1802000   119.73632      29.379156      7            
   1803000   102.76961      25.213754      7            
   1804000   112.25515      27.545578      8            
   1805000   143.28549      34.681558      10           
   1806000   84.225173      20.536142      9            
   1807000   178.29929      43.755391      5            
   1808000   45.601775      11.112456      4            
   1809000   123.56857      30.322683      6            
   1810000   139.92431      34.324882      10           
   1811000   117.67751      28.874741      8            
   1812000   111.02693      27.153558      10           
   1813000   59.90141       14.208649      7            
   1814000   168.39161      41.310669      13           
   1815000   159.89174      38.555941      11           
   1816000   108.77126      26.664782      9            
   1817000   94.652189      23.226063      6            
   1818000   169.97722      41.549349      10           
   1819000   115.2175       28.217602      7            
   1820000   98.336078      24.117737      6            
   1821000   100.11957      24.311971      8            
   1822000   176.24458      43.231492      7            
   1823000   157.60588      38.086876      13           
   1824000   119.4001       29.263373      9            
   1825000   142.49727      34.618311      10           
   1826000   195.79345      48.025617      12           
   1827000   11.601188      2.8465784      1            
   1828000   91.716752      22.431497      8            
   1829000   40.220981      9.8679204      4            
   1830000   122.01241      29.90633       10           
   1831000   72.018622      17.671206      6            
   1832000   132.11393      32.350967      7            
   1833000   76.228101      18.706087      4            
   1834000   127.70787      31.336462      8            
   1835000   89.116516      21.840467      8            
   1836000   125.31221      30.723224      7            
   1837000   104.16135      25.545069      9            
   1838000   173.24891      42.506497      13           
   1839000   144.58281      35.434404      10           
   1840000   161.25599      38.957084      11           
   1841000   69.208185      16.682787      7            
   1842000   144.81041      35.533598      7            
   1843000   138.84179      33.675376      8            
   1844000   97.9082        24.00282       7            
   1845000   128.99529      31.637101      12           
   1846000   88.085018      21.436203      7            
   1847000   120.39547      29.509993      9            
   1848000   162.1972       39.79842       9            
   1849000   140.63365      34.46411       10           
   1850000   105.2037       25.807562      8            
   1851000   178.87842      43.886984      11           
   1852000   97.940359      24.033937      5            
   1853000   85.233322      20.69142       9            
   1854000   67.639678      16.597774      5            
   1855000   128.71728      31.522225      8            
   1856000   158.56819      38.913375      5            
   1857000   161.02978      38.556071      8            
   1858000   83.407955      20.460144      7            
   1859000   158.47918      38.891831      8            
   1860000   102.87346      24.48313       8            
   1861000   190.15338      46.655279      11           
   1862000   119.02533      29.208166      5            
   1863000   185.74314      45.568107      11           
   1864000   72.498414      17.773907      9            
   1865000   34.521072      8.4709619      2            
   1866000   180.46418      44.032488      12           
   1867000   183.27036      44.9741        8            
   1868000   93.648389      22.982003      2            
   1869000   137.18929      33.662171      7            
   1870000   208.14542      50.644431      11           
   1871000   46.544254      11.420558      4            
   1872000   84.465332      20.727734      6            
   1873000   135.48429      33.247474      5            
   1874000   243.10053      59.656909      12           
   1875000   84.576488      20.754114      4            
   1876000   112.97007      27.658142      5            
   1877000   174.88754      42.865928      11           
   1878000   32.206371      7.9025798      4            
   1879000   87.872346      21.561806      6            
   1880000   143.10789      35.117653      5            
   1881000   72.792327      17.850585      6            
   1882000   39.16234       9.4849438      3            
   1883000   180.20933      44.181108      11           
   1884000   97.660792      23.954078      5            
   1885000   158.9415       38.982754      12           
   1886000   104.32117      25.599221      6            
   1887000   174.72493      42.763265      10           
   1888000   58.56157       14.369596      4            
   1889000   167.66786      41.134982      8            
   1890000   112.95943      27.710886      7            
   1891000   135.19877      33.180221      7            
   1892000   77.639126      19.050661      4            
   1893000   78.991964      19.32062       7            
   1894000   15.179731      3.7242559      2            
   1895000   101.43684      24.884233      5            
   1896000   111.99376      27.474487      7            
   1897000   132.62804      32.536486      6            
   1898000   77.156423      18.930381      7            
   1899000   161.83136      39.288019      7            
   1900000   156.75049      38.456037      7            
   1901000   201.39683      48.753508      14           
   1902000   188.26657      46.197341      9            
   1903000   114.62763      27.935855      8            
   1904000   163.87682      39.360659      10           
   1905000   162.62465      39.342949      11           
   1906000   155.32336      38.102219      12           
   1907000   181.99788      44.596634      9            
   1908000   77.825065      19.096401      6            
   1909000   41.51932       10.185727      5            
   1910000   66.437826      16.30341       3            
   1911000   89.11871       21.868885      5            
   1912000   147.9233       35.860716      14           
   1913000   214.7632       52.678913      10           
   1914000   183.22714      44.954154      7            
   1915000   189.24913      46.443125      9            
   1916000   242.19188      59.158305      9            
   1917000   76.824546      18.851421      5            
   1918000   103.15007      25.311568      6            
   1919000   112.17211      27.512231      11           
   1920000   113.42391      27.834408      4            
   1921000   113.20566      27.749527      9            
   1922000   136.93218      33.594383      8            
   1923000   75.449         18.503836      8            
   1924000   99.828628      24.492715      7            
   1925000   151.37571      37.118273      10           
   1926000   133.43706      32.01365       13           
   1927000   131.20649      32.196669      7            
   1928000   131.20729      32.188383      10           
   1929000   110.12999      26.97552       9            
   1930000   32.748115      8.0341109      5            
   1931000   195.11876      47.656137      13           
   1932000   197.33455      48.396796      10           
   1933000   32.250491      7.9113321      4            
   1934000   123.1888       29.695799      9            
   1935000   111.72758      27.388097      7            
   1936000   173.09698      42.440313      9            
   1937000   164.70348      40.420421      13           
   1938000   171.23999      41.93288       13           
   1939000   66.958015      16.378349      6            
   1940000   86.506212      21.21822       7            
   1941000   130.89184      32.119942      7            
   1942000   213.77492      52.379193      12           
   1943000   90.75791       22.269529      7            
   1944000   184.55643      44.971967      11           
   1945000   59.93168       14.696504      4            
   1946000   197.63622      48.435064      11           
   1947000   35.947133      8.8197322      5            
   1948000   153.86058      37.738713      8            
   1949000   153.22948      37.557163      8            
   1950000   140.68792      34.523342      6            
   1951000   193.50311      47.484487      9            
   1952000   103.09384      25.299091      4            
   1953000   87.000941      21.34957       6            
   1954000   134.85064      33.088242      8            
   1955000   191.0429       46.881036      8            
   1956000   135.76281      33.492208      10           
   1957000   100.57718      24.677949      8            
   1958000   101.6384       24.93445       9            
   1959000   171.1002       41.981675      11           
   1960000   160.78625      39.369494      14           
   1961000   133.62379      32.781664      7            
   1962000   80.326674      19.704743      6            
   1963000   115.48729      28.324085      9            
   1964000   236.08908      57.644726      10           
   1965000   179.13364      43.95754       8            
   1966000   138.77984      34.058216      2            
   1967000   48.390862      11.870702      5            
   1968000   121.46307      29.797153      10           
   1969000   150.88752      36.683324      9            
   1970000   97.466648      23.89126       13           
   1971000   59.712524      14.649581      6            
   1972000   171.75995      41.514573      11           
   1973000   148.99851      36.405663      6            
   1974000   146.05307      35.84146       5            
   1975000   199.17873      48.872483      13           
   1976000   82.348695      20.056792      8            
   1977000   199.74479      48.877104      14           
   1978000   145.80998      35.22847       9            
   1979000   102.095        25.05403       6            
   1980000   180.04783      44.184368      7            
   1981000   47.519709      11.661109      2            
   1982000   74.080433      18.179128      3            
   1983000   161.67534      39.645845      12           
   1984000   139.21282      34.131176      7            
   1985000   181.18523      44.460722      10           
   1986000   60.908206      14.940689      7            
   1987000   57.512938      14.112544      4            
   1988000   85.130136      20.891002      3            
   1989000   191.18851      46.552274      15           
   1990000   133.27869      32.690612      7            
   1991000   111.69093      27.403781      10           
   1992000   109.52443      26.871876      6            
   1993000   129.47691      31.771599      7            
   1994000   160.64347      39.415886      12           
   1995000   95.371263      23.387348      8            
   1996000   37.66897       9.2314087      6            
   1997000   39.529367      9.6991462      4            
   1998000   10.014564      2.4565428      2            
   1999000   157.86051      38.731964      7            
   2000000   134.37092      32.971062      8            
   2001000   167.8413       41.186322      9            
   2002000   135.62259      33.119738      9            
   2003000   118.83731      29.157339      6            
   2004000   32.703729      8.0199997      3            
   2005000   223.49468      54.505417      9            
   2006000   64.205402      15.747181      8            
   2007000   146.91947      36.033975      7            
   2008000   193.31455      47.436329      10           
   2009000   65.139791      15.849204      7            
   2010000   60.820006      14.924402      3            
   2011000   178.06951      43.305061      9            
   2012000   70.680397      17.340816      7            
   2013000   114.87306      28.141259      7            
   2014000   128.37727      31.34046       6            
   2015000   110.74192      27.164811      9            
   2016000   88.765915      21.292133      9            
   2017000   44.068936      10.812417      4            
   2018000   104.12435      25.233287      11           
   2019000   85.699809      20.88479       7            
   2020000   145.31137      35.166149      8            
   2021000   188.40344      46.092757      14           
   2022000   166.48632      40.722922      16           
   2023000   118.02524      28.953773      7            
   2024000   174.64893      42.849428      10           
   2025000   105.88609      25.98449       8            
   2026000   80.899795      19.852664      3            
   2027000   137.34044      33.700037      10           
   2028000   113.50753      27.853767      9            
   2029000   126.93818      31.123237      12           
   2030000   42.174813      10.348788      3            
   2031000   93.211958      22.874685      5            
   2032000   171.74292      42.099417      13           
   2033000   110.99641      27.230589      9            
   2034000   127.64135      30.893193      12           
   2035000   169.59047      41.606382      8            
   2036000   75.424367      18.066621      5            
   2037000   166.20845      40.374558      10           
   2038000   76.977354      18.889607      4            
   2039000   171.98125      42.173203      6            
   2040000   86.756421      21.290158      5            
   2041000   186.14868      44.813805      10           
   2042000   98.696614      24.181379      10           
   2043000   130.63555      32.055973      8            
   2044000   104.32015      25.311658      8            
   2045000   172.08167      42.22468       12           
   2046000   84.141517      20.645687      8            
   2047000   161.73907      39.689669      10           
   2048000   203.70759      49.860665      14           
   2049000   157.75071      38.702733      11           
   2050000   91.916134      22.548129      5            
   2051000   55.22806       13.545931      5            
   2052000   54.197987      13.280467      6            
   2053000   136.23688      33.384566      6            
   2054000   40.325804      9.894271       4            
   2055000   79.008736      19.382281      6            
   2056000   142.09146      34.864578      8            
   2057000   195.79027      47.848326      10           
   2058000   167.98999      40.048929      15           
   2059000   132.87304      32.597701      7            
   2060000   121.68377      29.857156      5            
   2061000   200.46131      49.040458      12           
   2062000   138.12487      33.893694      5            
   2063000   59.165818      14.489256      7            
   2064000   75.666982      18.565897      6            
   2065000   139.29104      34.166565      11           
   2066000   94.374477      23.156466      8            
   2067000   161.7929       39.657916      8            
   2068000   137.18034      33.660458      8            
   2069000   174.56004      42.834246      9            
   2070000   197.99607      48.59035       5            
   2071000   187.81767      46.032457      7            
   2072000   160.185        39.036619      10           
   2073000   142.14977      34.835116      10           
   2074000   79.042258      19.396907      8            
   2075000   161.965        39.745851      7            
   2076000   100.22058      24.588679      7            
   2077000   75.055941      18.416289      5            
   2078000   190.90527      46.845062      10           
   2079000   126.77662      31.113791      5            
   2080000   64.48844       15.247975      5            
   2081000   144.86835      35.553048      7            
   2082000   71.842158      17.628729      5            
   2083000   166.8662       40.93346       11           
   2084000   29.172365      7.1546728      4            
   2085000   137.02213      33.625139      5            
   2086000   195.1652       47.697847      14           
   2087000   92.251508      22.603466      7            
   2088000   65.351628      15.690475      7            
   2089000   49.91768       12.227319      5            
   2090000   127.15434      31.202612      8            
   2091000   61.494062      15.092132      5            
   2092000   47.262926      11.600256      4            
   2093000   153.00438      37.547856      8            
   2094000   123.01699      29.989253      10           
   2095000   76.305252      18.723479      6            
   2096000   165.76062      40.659952      9            
   2097000   150.62023      36.939816      10           
   2098000   146.6137       35.96755       9            
   2099000   174.45515      42.809078      13           
   2100000   71.077005      17.440958      5            
   2101000   188.30595      46.156659      7            
   2102000   44.248085      10.851407      5            
   2103000   129.12156      31.682296      6            
   2104000   70.181998      16.430458      6            
   2105000   199.94809      49.005773      14           
   2106000   60.621488      14.87601       3            
   2107000   32.821167      8.046188       4            
   2108000   128.56671      31.495127      8            
   2109000   161.56854      39.544844      10           
   2110000   122.04067      29.871076      7            
   2111000   151.51983      37.160493      10           
   2112000   94.472438      23.173022      6            
   2113000   158.50469      38.897988      9            
   2114000   71.085318      16.918697      6            
   2115000   125.24355      30.702419      10           
   2116000   177.84797      43.474286      11           
   2117000   163.43885      40.048909      9            
   2118000   98.328095      24.117896      10           
   2119000   98.854786      24.250441      8            
   2120000   120.50949      29.345959      5            
   2121000   92.044103      22.584442      5            
   2122000   150.43584      36.917881      4            
   2123000   173.39663      42.553185      8            
   2124000   141.27211      34.667113      7            
   2125000   196.14227      47.793254      9            
   2126000   156.77891      38.337747      14           
   2127000   140.6282       34.37298       7            
   2128000   134.8819       33.090426      9            
   2129000   44.305964      10.87093       4            
   2130000   151.63489      37.211625      7            
   2131000   81.364448      19.737266      5            
   2132000   127.07105      31.151143      10           
   2133000   147.95125      36.302241      10           
   2134000   66.990918      16.434604      3            
   2135000   127.44297      31.261719      10           
   2136000   136.6007       33.520403      6            
   2137000   141.49054      34.695152      11           
   2138000   104.14515      24.920236      5            
   2139000   53.767707      13.193404      4            
   2140000   63.344879      15.529536      6            
   2141000   87.41684       21.301136      7            
   2142000   42.591648      10.399641      5            
   2143000   167.06781      40.28968       12           
   2144000   62.08886       15.233807      8            
   2145000   185.84385      45.565035      11           
   2146000   167.73143      41.047154      8            
   2147000   81.3901        19.97037       6            
   2148000   114.08712      27.999355      5            
   2149000   125.5002       30.07093       8            
   2150000   193.82696      47.562494      8            
   2151000   76.250368      18.693904      6            
   2152000   115.08438      27.843965      9            
   2153000   193.98802      47.533115      12           
   2154000   47.453456      11.643261      5            
   2155000   136.14467      33.39689       10           
   2156000   77.171247      18.936462      5            
   2157000   192.1391       46.951373      14           
   2158000   103.51416      25.393498      8            
   2159000   85.413002      20.539933      9            
   2160000   192.52858      47.237483      8            
   2161000   175.07411      41.71814       14           
   2162000   117.75941      28.728605      8            
   2163000   79.221949      19.418271      6            
   2164000   134.88044      32.163446      11           
   2165000   114.85718      28.134504      9            
   2166000   135.54497      33.26106       7            
   2167000   158.19239      38.629789      12           
   2168000   135.5818       33.230106      9            
   2169000   174.33895      42.742252      7            
   2170000   113.30663      27.796748      6            
   2171000   106.72861      26.178857      8            
   2172000   81.820019      20.069881      9            
   2173000   137.10992      33.282658      7            
   2174000   92.529089      22.704058      8            
   2175000   132.8921       32.580819      13           
   2176000   123.19728      30.222232      8            
   2177000   195.34275      47.938467      11           
   2178000   79.787497      19.578835      5            
   2179000   94.754609      23.251632      6            
   2180000   182.62918      44.809435      9            
   2181000   132.36984      32.464965      13           
   2182000   51.665242      12.677083      5            
   2183000   119.82133      29.395148      7            
   2184000   123.46832      30.303736      5            
   2185000   96.724505      23.731835      6            
   2186000   177.41313      43.536966      7            
   2187000   120.08784      29.451382      9            
   2188000   153.82258      37.739482      5            
   2189000   106.31707      26.047053      6            
   2190000   129.46359      31.691493      9            
   2191000   64.221044      15.751298      7            
   2192000   172.96601      42.301086      12           
   2193000   161.76607      39.656154      11           
   2194000   170.32612      41.765157      9            
   2195000   200.98963      48.387416      9            
   2196000   136.60313      33.516175      9            
   2197000   95.409383      23.039479      11           
   2198000   63.45457       15.576676      6            
   2199000   104.24966      25.57309       8            
   2200000   23.198006      5.6523083      2            
   2201000   62.12896       15.245928      3            
   2202000   178.16809      43.722052      7            
   2203000   152.05443      37.278864      8            
   2204000   130.93305      32.120006      9            
   2205000   143.94134      35.30133       9            
   2206000   71.216031      17.476595      4            
   2207000   185.29644      45.134659      15           
   2208000   200.17584      49.089776      10           
   2209000   122.02627      29.946078      7            
   2210000   76.802084      18.774161      7            
   2211000   60.055852      14.710325      7            
   2212000   108.34406      26.584755      8            
   2213000   142.56527      34.982469      8            
   2214000   49.508268      12.150282      5            
   2215000   59.084049      14.498229      4            
   2216000   77.028054      18.895652      5            
   2217000   236.95338      57.664848      9            
   2218000   202.59464      49.549884      14           
   2219000   107.55873      26.393938      6            
   2220000   84.734276      20.793504      8            
   2221000   86.878478      21.316972      7            
   2222000   44.032067      10.802717      5            
   2223000   160.10982      39.180704      8            
   2224000   99.308116      24.364009      5            
   2225000   18.855862      4.5936147      5            
   2226000   189.11629      46.368535      13           
   2227000   101.74551      24.960886      6            
   2228000   131.97761      32.341201      9            
   2229000   179.481        44.033214      9            
   2230000   33.253217      8.1544128      6            
   2231000   67.86165       16.648788      8            
   2232000   162.29268      39.823341      8            
   2233000   200.16482      49.100395      8            
   2234000   51.913135      12.730557      6            
   2235000   38.406746      9.4230877      3            
   2236000   109.87837      26.96044       8            
   2237000   203.86296      49.157181      10           
   2238000   117.05558      28.554551      7            
   2239000   33.404782      8.1954768      4            
   2240000   118.23396      29.013972      6            
   2241000   192.40407      46.905075      15           
   2242000   200.25351      49.071869      13           
   2243000   114.32296      26.686867      8            
   2244000   23.802074      5.8397667      3            
   2245000   132.11305      32.271138      6            
   2246000   40.77345       9.9980545      6            
   2247000   149.38554      36.606703      6            
   2248000   122.88165      30.105291      12           
   2249000   192.70682      47.243101      12           
   2250000   96.125761      23.588914      5            
   2251000   108.58534      26.619572      6            
   2252000   162.03253      39.745572      11           
   2253000   126.30519      30.996464      7            
   2254000   119.26315      28.767685      9            
   2255000   52.445506      12.868652      4            
   2256000   128.26842      31.458881      7            
   2257000   139.22403      34.145715      8            
   2258000   81.715725      20.052981      3            
   2259000   154.22869      37.770611      12           
   2260000   155.44578      37.615171      10           
   2261000   108.36498      26.540276      8            
   2262000   144.43006      35.040545      10           
   2263000   154.35338      37.874685      7            
   2264000   27.406016      6.7248293      2            
   2265000   189.81722      46.480833      6            
   2266000   132.25083      32.453762      5            
   2267000   137.62628      33.76946       10           
   2268000   23.469456      5.7576555      4            
   2269000   140.36362      34.382931      11           
   2270000   73.355354      17.876601      4            
   2271000   148.14357      36.348198      6            
   2272000   162.9136       39.975436      10           
   2273000   144.56009      35.282628      9            
   2274000   117.43468      27.885873      9            
   2275000   153.02593      37.542885      12           
   2276000   144.65073      35.497687      4            
   2277000   131.55415      32.267869      9            
   2278000   189.92382      45.144603      12           
   2279000   197.54238      47.664041      12           
   2280000   87.368098      21.437072      9            
   2281000   159.85284      39.220219      7            
   2282000   150.71609      36.947243      9            
   2283000   154.95569      37.946036      11           
   2284000   96.608967      23.542377      7            
   2285000   159.18524      39.054723      8            
   2286000   65.99522       16.189248      7            
   2287000   80.070449      19.640586      5            
   2288000   142.04572      34.824086      9            
   2289000   141.48094      34.698628      13           
   2290000   116.33919      28.516699      6            
   2291000   191.82068      47.018841      12           
   2292000   129.35203      31.733429      9            
   2293000   207.80984      50.915367      12           
   2294000   161.58673      39.647609      9            
   2295000   155.70231      38.201036      8            
   2296000   122.39283      30.024823      8            
   2297000   146.23354      35.870108      12           
   2298000   84.640141      20.762359      6            
   2299000   251.0639       61.108144      8            
   2300000   72.112468      17.695466      4            
   2301000   85.024878      20.769016      6            
   2302000   176.62477      43.340434      6            
   2303000   157.09407      38.548138      10           
   2304000   170.94938      41.845081      10           
   2305000   46.948842      11.51397       4            
   2306000   186.35933      45.720528      9            
   2307000   159.51243      39.099491      15           
   2308000   180.02719      44.155417      10           
   2309000   192.3999       46.405731      11           
   2310000   68.024074      16.692308      4            
   2311000   127.97654      31.402314      8            
   2312000   52.484723      12.881443      6            
   2313000   83.972014      20.605263      5            
   2314000   146.1165       35.821297      10           
   2315000   105.61557      25.911492      7            
   2316000   63.463736      15.572269      2            
   2317000   151.97578      36.793363      9            
   2318000   90.68922       22.253531      6            
   2319000   157.94261      38.7402        6            
   2320000   118.50764      29.081777      6            
   2321000   140.88512      34.08475       12           
   2322000   157.99046      38.762142      9            
   2323000   133.76647      32.827681      8            
   2324000   126.01779      30.924141      5            
   2325000   140.34566      34.434267      6            
   2326000   44.74583       10.978498      5            
   2327000   89.668316      21.777236      6            
   2328000   63.397507      15.551447      6            
   2329000   158.82483      37.813071      14           
   2330000   69.000212      16.93401       5            
   2331000   148.23764      35.56064       9            
   2332000   168.28494      41.287529      9            
   2333000   177.58456      42.710368      12           
   2334000   199.87984      48.313842      12           
   2335000   134.05639      32.876941      10           
   2336000   123.60937      30.297652      13           
   2337000   128.44515      31.46035       10           
   2338000   40.990207      10.057217      4            
   2339000   285.79327      70.102239      13           
   2340000   124.07458      30.451252      5            
   2341000   94.393893      23.15857       8            
   2342000   83.185696      20.410951      8            
   2343000   176.10696      42.440807      11           
   2344000   126.63752      31.030341      9            
   2345000   62.969366      15.429952      8            
   2346000   157.92816      38.746274      9            
   2347000   132.14363      32.423392      9            
   2348000   111.16528      27.184922      13           
   2349000   200.80761      49.082512      13           
   2350000   62.212952      15.265337      5            
   2351000   129.72349      31.826031      8            
   2352000   173.06079      42.260263      12           
   2353000   102.91842      24.950182      13           
   2354000   204.14267      50.063031      13           
   2355000   90.931181      22.082886      8            
   2356000   198.99037      48.730022      12           
   2357000   131.3066       31.320857      6            
   2358000   183.29448      44.968873      8            
   2359000   181.81116      44.536765      9            
   2360000   146.77825      35.981264      9            
   2361000   119.51602      29.32411       7            
   2362000   153.32908      37.50232       8            
   2363000   128.31131      30.718234      6            
   2364000   44.888277      11.013508      5            
   2365000   176.21187      45.67832       7            
   2366000   105.02358      25.490731      9            
   2367000   125.19685      30.720893      8            
   2368000   171.91112      41.825116      11           
   2369000   74.529825      18.287413      5            
   2370000   186.36424      45.719075      10           
   2371000   133.86133      32.836438      9            
   2372000   154.3836       37.884694      8            
   2373000   83.639888      20.522318      8            
   2374000   47.138821      11.525157      4            
   2375000   179.76194      43.931621      10           
   2376000   114.7327       28.147989      6            
   2377000   150.94294      37.041265      7            
   2378000   196.08729      47.321553      8            
   2379000   111.91727      27.081132      5            
   2380000   40.015931      9.8069378      8            
   2381000   60.014742      14.727766      4            
   2382000   116.86009      28.676924      5            
   2383000   121.01871      29.657799      11           
   2384000   162.10748      39.08189       7            
   2385000   180.62249      44.253191      12           
   2386000   67.576142      16.579431      6            
   2387000   109.60111      26.893846      8            
   2388000   175.08936      42.969483      7            
   2389000   179.60094      44.075486      5            
   2390000   119.08721      29.210067      7            
   2391000   186.25174      45.53538       6            
   2392000   78.559666      19.226694      9            
   2393000   76.456247      18.619152      8            
   2394000   115.32025      27.387876      7            
   2395000   197.57388      48.439508      9            
   2396000   46.170343      11.324552      4            
   2397000   120.74056      29.59104       9            
   2398000   64.29792       15.776982      5            
   2399000   35.727848      8.7658483      4            
   2400000   191.31519      46.21337       13           
   2401000   113.83637      27.933676      6            
   2402000   153.02209      37.195752      10           
   2403000   223.97392      54.106636      16           
   2404000   348.76055      85.403652      14           
   2405000   88.719598      21.770237      4            
   2406000   94.423044      23.169877      7            
   2407000   169.01065      41.471112      10           
   2408000   53.094512      13.027901      5            
   2409000   199.032        48.838255      11           
   2410000   137.34429      33.690509      4            
   2411000   179.85938      44.125697      7            
   2412000   148.55929      36.378352      7            
   2413000   121.78865      29.872906      8            
   2414000   154.62845      37.897067      10           
   2415000   139.89808      34.325555      7            
   2416000   145.74186      35.69273       12           
   2417000   166.16403      40.747172      12           
   2418000   181.90733      44.592225      14           
   2419000   82.093291      20.137289      5            
   2420000   120.64652      29.592924      8            
   2421000   129.33935      31.732605      8            
   2422000   32.455977      7.9614025      7            
   2423000   100.70362      24.713911      8            
   2424000   146.53281      35.858448      8            
   2425000   152.02924      37.303203      11           
   2426000   75.463481      18.51707       5            
   2427000   91.637323      22.48286       10           
   2428000   117.12622      28.620232      11           
   2429000   167.56484      41.117503      11           
   2430000   65.439754      15.971332      8            
   2431000   131.08142      32.155517      7            
   2432000   146.65769      35.990143      7            
   2433000   165.45533      40.285599      7            
   2434000   107.06373      26.253926      6            
   2435000   141.19606      34.469116      7            
   2436000   131.89956      32.356416      8            
   2437000   146.67163      35.990541      9            
   2438000   112.60085      27.630927      7            
   2439000   177.95296      43.639698      8            
   2440000   59.683188      14.643998      6            
   2441000   187.94702      46.118839      7            
   2442000   89.355869      21.926468      9            
   2443000   100.17918      24.577163      8            
   2444000   120.54436      29.57784       9            
   2445000   140.80925      34.535373      9            
   2446000   165.29825      40.49953       8            
   2447000   187.55023      45.886994      10           
   2448000   184.63976      45.262502      12           
   2449000   106.90804      26.131059      8            
   2450000   35.421048      8.6902578      5            
   2451000   67.258863      16.504891      3            
   2452000   125.54013      30.809042      5            
   2453000   174.77818      42.890471      6            
   2454000   99.013632      24.295842      7            
   2455000   144.25383      35.383306      8            
   2456000   130.47338      32.012947      6            
   2457000   61.560829      15.10198       6            
   2458000   143.25485      35.136172      5            
   2459000   42.865001      9.982427       6            
   2460000   124.49467      29.910876      8            
   2461000   313.20012      76.720544      10           
   2462000   104.6373       25.674533      7            
   2463000   172.41359      41.874437      12           
   2464000   46.382284      11.385663      5            
   2465000   154.99882      38.0339        5            
   2466000   89.29952       21.908528      7            
   2467000   134.76098      32.93338       8            
   2468000   199.35086      48.69802       13           
   2469000   66.321566      16.273574      6            
   2470000   96.896004      23.746554      6            
   2471000   193.00193      47.040854      12           
   2472000   129.13482      31.652005      9            
   2473000   43.525072      10.678371      5            
   2474000   160.98046      39.500438      7            
   2475000   169.55727      41.602513      11           
   2476000   106.83996      26.21784       7            
   2477000   151.94955      37.279208      8            
   2478000   92.337143      22.657545      7            
   2479000   197.38129      48.438006      7            
   2480000   105.12118      25.793006      5            
   2481000   170.26371      41.778527      9            
   2482000   132.92453      32.604136      10           
   2483000   47.398927      11.631537      6            
   2484000   137.63882      33.766958      8            
   2485000   30.082765      7.3811948      4            
   2486000   169.28521      40.965057      9            
   2487000   161.02764      39.508725      7            
   2488000   198.2489       48.638219      9            
   2489000   165.21374      40.487476      14           
   2490000   104.37276      25.599075      8            
   2491000   67.607834      16.591333      3            
   2492000   186.55209      45.764909      11           
   2493000   140.40448      34.454413      6            
   2494000   39.875149      9.7818723      4            
   2495000   8.1921232      2.0093579      2            
   2496000   64.976134      15.923486      5            
   2497000   158.09603      38.789095      7            
   2498000   159.63865      38.492906      9            
   2499000   73.077059      17.929758      6            
   2500000   59.516563      14.592742      6            
   2501000   176.6444       43.346589      9            
   2502000   53.913943      13.223951      4            
Loop time of 505.259 on 8 procs for 2500000 steps with 12 atoms

Performance: 427.504 ns/day, 0.056 hours/ns, 4947.962 timesteps/s, 59.376 katom-step/s
798.8% CPU use with 1 MPI tasks x 8 OpenMP threads

MPI task timing breakdown:
Section |  min time  |  avg time  |  max time  |%varavg| %total
---------------------------------------------------------------
Pair    | 6.5466     | 6.5466     | 6.5466     |   0.0 |  1.30
Bond    | 12.117     | 12.117     | 12.117     |   0.0 |  2.40
Kspace  | 388.35     | 388.35     | 388.35     |   0.0 | 76.86
Neigh   | 0.41975    | 0.41975    | 0.41975    |   0.0 |  0.08
Comm    | 1.7252     | 1.7252     | 1.7252     |   0.0 |  0.34
Output  | 0.049436   | 0.049436   | 0.049436   |   0.0 |  0.01
Modify  | 95.249     | 95.249     | 95.249     |   0.0 | 18.85
Other   |            | 0.8034     |            |       |  0.16

Nlocal:             12 ave          12 max          12 min
Histogram: 1 0 0 0 0 0 0 0 0 0
Nghost:             23 ave          23 max          23 min
Histogram: 1 0 0 0 0 0 0 0 0 0
Neighs:             21 ave          21 max          21 min
Histogram: 1 0 0 0 0 0 0 0 0 0

Total # of neighbors = 21
Ave neighs/atom = 1.75
Ave special neighs/atom = 2
Neighbor list builds = 321893
Dangerous builds = 0
Total wall time: 0:08:25
