LAMMPS (27 Jun 2024)
  using 8 OpenMP thread(s) per MPI task
package omp 0
using multi-threaded neighbor list subroutines
# LAMMPS input script by Simon Gravelle
# For LAMMPS tutorials, see https://lammpstutorials.github.io
# Last tested using the 27Jun2024 LAMMPS version

variable Nstep equal 2500000
variable mu_K equal -3900
variable mu_kcal_mol equal ${mu_K}*0.0019872041
variable mu_kcal_mol equal -3900*0.0019872041
print "mu equal ${mu_kcal_mol}"
mu equal -7.75009599
variable tfac equal 5.0/3.0
variable Nattempt equal 100

units real
boundary p p p
atom_style full
pair_style lj/cut/coul/long 12
kspace_style ewald 1.0e-5
bond_style harmonic
angle_style harmonic
pair_modify mix geometric
special_bonds lj 0.0 0.0 0.0 coul 0.0 0.0 0.0 angle yes

read_data box.data
Reading data file ...
  orthogonal box = (-12.5 -12.5 -12.5) to (12.5 12.5 12.5)
  1 by 1 by 1 MPI processor grid
  reading atom labelmap ...
  reading bond labelmap ...
  reading angle labelmap ...
  reading atoms ...
  75 atoms
  reading velocities ...
  75 velocities
  scanning bonds ...
  1 = max bonds/atom
  scanning angles ...
  1 = max angles/atom
  orthogonal box = (-12.5 -12.5 -12.5) to (12.5 12.5 12.5)
  1 by 1 by 1 MPI processor grid
  reading bonds ...
  50 bonds
  reading angles ...
  25 angles
Finding 1-2 1-3 1-4 neighbors ...
  special bond factors lj:    0        0        0       
  special bond factors coul:  0        0        0       
     2 = max # of 1-2 neighbors
     1 = max # of 1-3 neighbors
     1 = max # of 1-4 neighbors
  50 = # of 1-3 neighbors before angle trim
  50 = # of 1-3 neighbors after angle trim
     2 = max # of special neighbors
  special bonds CPU = 0.000 seconds
  read_data CPU = 0.009 seconds
labelmap atom 1 O 2 H
labelmap bond 1 O-H
labelmap angle 1 H-O-H

group H2O type O H
75 atoms in group H2O
include parm.lmp
# LAMMPS parameter file for H2O SPCE water model
# For conversion from K to kcal / mol, multiply
# by Boltzmann = 0.0019872041 kcal / (mol * K)

mass O 15.9994 # O
mass H 1.00784 # H

pair_coeff O O 0.15535 3.166
pair_coeff H H 0.0 1.0

bond_coeff O-H 0.0 1.0 # rigid

angle_coeff H-O-H 0.0 109.47 # rigid
molecule h2Omol H2O.mol
Read molecule template h2Omol:
# LAMMPS molecule file for carbondioxide
  1 molecules
  0 fragments
  3 atoms with max type 2
  2 bonds with max type 1
  1 angles with max type 1
  0 dihedrals with max type 0
  0 impropers with max type 0

fix mynvt H2O rigid/nvt/small molecule temp 300 300 100 mol h2Omol
  create bodies CPU = 0.000 seconds
  25 rigid bodies with 75 atoms
  1 = max distance from body owner to body atom
thermo 1000

run 2000

CITE-CITE-CITE-CITE-CITE-CITE-CITE-CITE-CITE-CITE-CITE-CITE-CITE

Your simulation uses code contributions which should be cited:

- Type Label Framework: https://doi.org/10.1021/acs.jpcb.3c08419

@Article{Gissinger24,
 author = {Jacob R. Gissinger, Ilia Nikiforov, Yaser Afshar, Brendon Waters, Moon-ki Choi, Daniel S. Karls, Alexander Stukowski, Wonpil Im, Hendrik Heinz, Axel Kohlmeyer, and Ellad B. Tadmor},
 title = {Type Label Framework for Bonded Force Fields in LAMMPS},
 journal = {J. Phys. Chem. B},
 year =    2024,
 volume =  128,
 number =  13,
 pages =   {3282â€“-3297}
}

CITE-CITE-CITE-CITE-CITE-CITE-CITE-CITE-CITE-CITE-CITE-CITE-CITE

Ewald initialization ...
  using 12-bit tables for long-range coulomb (src/kspace.cpp:342)
  G vector (1/distance) = 0.22469438
  estimated absolute RMS force accuracy = 0.0038172427
  estimated relative force accuracy = 1.1495513e-05
  KSpace vectors: actual max1d max3d = 257 5 665
                  kxmax kymax kzmax  = 5 5 5
Generated 1 of 1 mixed pair_coeff terms from geometric mixing rule
Last active /omp style is kspace_style ewald/omp
Neighbor list info ...
  update: every = 1 steps, delay = 0 steps, check = yes
  max neighbors/atom: 2000, page size: 100000
  master list distance cutoff = 14
  ghost atom cutoff = 14
  binsize = 7, bins = 4 4 4
  1 neighbor lists, perpetual/occasional/extra = 1 0 0
  (1) pair lj/cut/coul/long/omp, perpetual
      attributes: half, newton on, omp
      pair build: half/bin/newton/omp
      stencil: half/bin/3d
      bin: standard
Per MPI rank memory allocation (min/avg/max) = 26.58 | 26.58 | 26.58 Mbytes
   Step          Temp          E_pair         E_mol          TotEng         Press     
         0   0              1.2491558      0              1.2491558      43.713899    
      1000   279.04395     -21.99489       0              18.762184     -33.846059    
      2000   330.08069     -49.381587      0             -1.1701038     -108.78563    
Loop time of 0.250918 on 8 procs for 2000 steps with 75 atoms

Performance: 688.673 ns/day, 0.035 hours/ns, 7970.747 timesteps/s, 597.806 katom-step/s
797.9% CPU use with 1 MPI tasks x 8 OpenMP threads

MPI task timing breakdown:
Section |  min time  |  avg time  |  max time  |%varavg| %total
---------------------------------------------------------------
Pair    | 0.012364   | 0.012364   | 0.012364   |   0.0 |  4.93
Bond    | 0.0091052  | 0.0091052  | 0.0091052  |   0.0 |  3.63
Kspace  | 0.16133    | 0.16133    | 0.16133    |   0.0 | 64.30
Neigh   | 0.0026167  | 0.0026167  | 0.0026167  |   0.0 |  1.04
Comm    | 0.0060986  | 0.0060986  | 0.0060986  |   0.0 |  2.43
Output  | 1.9227e-05 | 1.9227e-05 | 1.9227e-05 |   0.0 |  0.01
Modify  | 0.058437   | 0.058437   | 0.058437   |   0.0 | 23.29
Other   |            | 0.0009463  |            |       |  0.38

Nlocal:             75 ave          75 max          75 min
Histogram: 1 0 0 0 0 0 0 0 0 0
Nghost:            633 ave         633 max         633 min
Histogram: 1 0 0 0 0 0 0 0 0 0
Neighs:           2028 ave        2028 max        2028 min
Histogram: 1 0 0 0 0 0 0 0 0 0

Total # of neighbors = 2028
Ave neighs/atom = 27.04
Ave special neighs/atom = 2
Neighbor list builds = 76
Dangerous builds = 0

fix fgcmc H2O gcmc 100 ${Nattempt} 0 0 65899 300 ${mu_kcal_mol} 0.1     mol h2Omol tfac_insert ${tfac} full_energy rigid mynvt
fix fgcmc H2O gcmc 100 100 0 0 65899 300 ${mu_kcal_mol} 0.1     mol h2Omol tfac_insert ${tfac} full_energy rigid mynvt
fix fgcmc H2O gcmc 100 100 0 0 65899 300 -7.75009599 0.1     mol h2Omol tfac_insert ${tfac} full_energy rigid mynvt
fix fgcmc H2O gcmc 100 100 0 0 65899 300 -7.75009599 0.1     mol h2Omol tfac_insert 1.66666666666667 full_energy rigid mynvt

variable oxygen atom "type==1"
group oxygen dynamic all var oxygen
dynamic group oxygen defined
variable nO equal count(oxygen)
fix myat1 all ave/time 100 1 100 v_nO file number_H2O.dat
variable density equal v_nO*(15.9994+2*1.008)/vol/6.022e23*(1e8)^3
fix myat2 all ave/time 100 1 100 v_density file density_H2O.dat
compute press all pressure thermo_temp
fix myat3 all ave/time 10 100 1000 c_press file pressure_H2O.dat
thermo_style custom step temp etotal v_nO

run ${Nstep}
run 2500000
Ewald initialization ...
  using 12-bit tables for long-range coulomb (src/kspace.cpp:342)
  G vector (1/distance) = 0.22469438
  estimated absolute RMS force accuracy = 0.0038172427
  estimated relative force accuracy = 1.1495513e-05
  KSpace vectors: actual max1d max3d = 257 5 665
                  kxmax kymax kzmax  = 5 5 5
Generated 1 of 1 mixed pair_coeff terms from geometric mixing rule
Last active /omp style is kspace_style ewald/omp
0 atoms in group FixGCMC:gcmc_exclusion_group:fgcmc
0 atoms in group FixGCMC:rotation_gas_atoms:fgcmc
WARNING: Neighbor exclusions used with KSpace solver may give inconsistent Coulombic energies (src/neighbor.cpp:658)
Per MPI rank memory allocation (min/avg/max) = 26.58 | 26.58 | 26.58 Mbytes
   Step          Temp          TotEng          v_nO     
      2000   330.08069     -1.1701038      25           
      3000   366.02        -152.5544       42           
      4000   468.86645     -592.47758      85           
      5000   516.86259     -1207.547       132          
      6000   485.07694     -1766.0301      175          
      7000   520.30915     -2187.8922      208          
      8000   495.17634     -2631.2152      237          
      9000   466.11089     -3103.0735      270          
     10000   426.95851     -3444.7966      293          
     11000   352.19551     -3749.5213      311          
     12000   398.88672     -3983.6739      326          
     13000   409.30513     -4264.8992      345          
     14000   365.28366     -4513.3407      363          
     15000   339.41852     -4694.5383      375          
     16000   308.90974     -4881.4586      387          
     17000   313.52975     -5084.6297      400          
     18000   326.60855     -5337.1728      418          
     19000   285.64615     -5507.0275      428          
     20000   287.97238     -5621.9821      435          
     21000   331.56195     -5712.2464      441          
     22000   326.87449     -5780.1456      446          
     23000   326.66616     -5887.5066      453          
     24000   288.03869     -5961.8137      457          
     25000   296.46796     -6037.6317      461          
     26000   319.82686     -6083.5977      465          
     27000   313.56953     -6114.8793      467          
     28000   284.30019     -6158.2821      469          
     29000   315.49944     -6227.2923      474          
     30000   287.55437     -6266.3853      476          
     31000   298.05624     -6317.9941      480          
     32000   291.72686     -6373.8969      483          
     33000   329.48123     -6367.5734      483          
     34000   271.98059     -6394.7625      484          
     35000   273.28645     -6427.632       486          
     36000   323.18007     -6462.2163      487          
     37000   314.2101      -6522.2346      491          
     38000   307.9694      -6545.0964      492          
     39000   303.36541     -6551.3581      493          
     40000   287.15001     -6576.6837      494          
     41000   280.94192     -6648.1219      499          
     42000   319.68413     -6662.0383      501          
     43000   325.49114     -6684.9551      503          
     44000   266.14622     -6728.6136      504          
     45000   298.3596      -6729.7145      504          
     46000   309.78551     -6779.2574      507          
     47000   321.42579     -6810.7533      509          
     48000   309.10765     -6817.4773      509          
     49000   307.30775     -6821.9462      509          
     50000   300.3536      -6819.6414      509          
     51000   325.16542     -6806.1889      509          
     52000   338.30186     -6825.4909      510          
     53000   324.78237     -6825.6064      510          
     54000   266.30425     -6839.417       510          
     55000   272.78095     -6853.6131      511          
     56000   363.02065     -6825.0472      511          
     57000   333.8611      -6849.2657      512          
     58000   348.13954     -6859.8068      513          
     59000   289.5797      -6884.889       513          
     60000   402.00494     -6858.798       514          
     61000   313.64907     -6903.8381      515          
     62000   301.85891     -6909.3475      515          
     63000   336.03516     -6910.4573      516          
     64000   357.21762     -6906.199       516          
     65000   285.02206     -6930.9542      516          
     66000   337.01573     -6917.5453      516          
     67000   276.7913      -6947.3736      518          
     68000   293.15809     -6949.2359      518          
     69000   282.18381     -6952.5654      518          
     70000   281.53696     -6964.5449      519          
     71000   316.46742     -6977.2044      520          
     72000   357.78972     -6960.7448      520          
     73000   272.27455     -6991.5854      520          
     74000   273.84507     -6991.8968      520          
     75000   267.19743     -7006.9671      521          
     76000   316.45532     -6991.3816      521          
     77000   272.50319     -7005.065       521          
     78000   317.29783     -6993.6345      521          
     79000   320.04973     -7011.7         522          
     80000   318.09616     -7013.0431      522          
     81000   304.79692     -7012.9463      522          
     82000   317.64296     -7007.0105      522          
     83000   268.33595     -7030.1738      522          
     84000   337.85465     -7003.2687      522          
     85000   284.67599     -7019.3824      522          
     86000   268.46163     -7026.9296      522          
     87000   356.60249     -7022.5797      524          
     88000   288.41014     -7062.0698      525          
     89000   282.2056      -7076.9555      526          
     90000   303.00609     -7069.9019      526          
     91000   308.39792     -7070.8602      526          
     92000   337.01006     -7062.6942      526          
     93000   306.88831     -7071.4457      526          
     94000   319.10566     -7069.2851      526          
     95000   294.34714     -7074.8462      526          
     96000   276.80295     -7081.918       526          
     97000   343.55877     -7063.5099      526          
     98000   294.00703     -7079.116       526          
     99000   320.36862     -7089.0117      527          
    100000   315.75206     -7084.3472      527          
    101000   332.9863      -7095.993       528          
    102000   296.44148     -7119.5227      529          
    103000   279.69999     -7134.3761      529          
    104000   346.63258     -7108.042       529          
    105000   272.59878     -7137.6343      530          
    106000   311.385       -7128.5512      530          
    107000   264.18149     -7141.9715      530          
    108000   308.71827     -7127.6325      530          
    109000   287.59423     -7138.0187      530          
    110000   330.81145     -7124.0672      530          
    111000   342.32958     -7132.1961      531          
    112000   289.29556     -7143.397       531          
    113000   305.38823     -7142.2208      531          
    114000   295.43072     -7144.9365      531          
    115000   285.1595      -7147.4192      531          
    116000   306.20123     -7145.5663      531          
    117000   277.80561     -7147.0613      531          
    118000   270.72547     -7165.0212      532          
    119000   330.85631     -7152.4746      532          
    120000   303.57265     -7154.6307      532          
    121000   337.53503     -7145.5511      532          
    122000   321.60027     -7158.8951      532          
    123000   275.51557     -7169.7411      532          
    124000   364.47011     -7142.464       532          
    125000   306.3504      -7154.8397      532          
    126000   318.51541     -7159.3073      532          
    127000   306.17763     -7169.6719      533          
    128000   291.52989     -7177.5078      533          
    129000   332.63034     -7163.407       533          
    130000   288.43779     -7177.3344      533          
    131000   306.09024     -7171.1056      533          
    132000   271.45255     -7188.6379      534          
    133000   271.13604     -7199.483       534          
    134000   323.07761     -7191.1163      534          
    135000   306.70742     -7202.9275      535          
    136000   300.24537     -7204.5808      535          
    137000   311.2878      -7203.0577      535          
    138000   310.87161     -7202.8354      535          
    139000   258.46207     -7232.6334      536          
    140000   319.03342     -7227.4515      537          
    141000   299.56067     -7233.4743      537          
    142000   288.25047     -7233.6226      537          
    143000   326.24592     -7225.0722      537          
    144000   267.49025     -7245.2712      537          
    145000   300.48901     -7231.5732      537          
    146000   324.37494     -7245.0522      538          
    147000   290.70197     -7254.9685      538          
    148000   281.82834     -7261.0131      538          
    149000   310.53047     -7249.2269      538          
    150000   335.52659     -7247.1881      538          
    151000   315.0257      -7245.7756      538          
    152000   286.48682     -7255.5501      538          
    153000   292.95847     -7262.9651      538          
    154000   323.27472     -7282.7697      540          
    155000   290.42        -7299.864       540          
    156000   320.44816     -7293.0517      540          
    157000   284.80425     -7298.4018      540          
    158000   289.8798      -7301.8926      540          
    159000   295.17117     -7300.0908      540          
    160000   255.5791      -7308.1975      540          
    161000   303.31312     -7302.8421      540          
    162000   281.93236     -7305.457       540          
    163000   314.32931     -7290.1888      540          
    164000   331.44003     -7293.9713      540          
    165000   275.83473     -7309.7499      540          
    166000   314.11932     -7299.1392      540          
    167000   296.05163     -7308.8522      540          
    168000   342.44969     -7288.37        540          
    169000   310.87223     -7298.0146      540          
    170000   290.09509     -7308.002       540          
    171000   301.04511     -7303.1769      540          
    172000   290.21315     -7305.7789      540          
    173000   308.38581     -7300.3885      540          
    174000   330.10856     -7294.0884      540          
    175000   299.26514     -7304.0758      540          
    176000   293.38184     -7307.5629      540          
    177000   339.95196     -7292.0007      540          
    178000   346.2997      -7295.0486      540          
    179000   340.50559     -7294.0469      540          
    180000   296.41996     -7314.0542      541          
    181000   337.01168     -7308.087       541          
    182000   296.18283     -7317.9305      541          
    183000   250.2724      -7333.8598      541          
    184000   354.19613     -7300.2361      541          
    185000   287.46867     -7322.2878      541          
    186000   340.9846      -7303.611       541          
    187000   258.57943     -7328.1699      541          
    188000   322.81725     -7310.1494      541          
    189000   283.44262     -7323.5889      541          
    190000   316.01445     -7311.1791      541          
    191000   299.97908     -7317.9924      541          
    192000   310.79703     -7314.6737      541          
    193000   304.975       -7318.7771      541          
    194000   251.32173     -7332.3687      541          
    195000   332.15362     -7313.1168      541          
    196000   327.97746     -7311.0172      541          
    197000   274.75923     -7332.6855      541          
    198000   297.08262     -7317.2522      541          
    199000   278.7794      -7329.0092      541          
    200000   323.80828     -7319.8881      541          
    201000   334.47886     -7314.1677      541          
    202000   357.81965     -7317.0219      542          
    203000   295.27054     -7337.665       542          
    204000   273.27187     -7339.4193      542          
    205000   301.30826     -7335.6138      542          
    206000   315.09937     -7352.8527      543          
    207000   289.51836     -7357.6605      543          
    208000   302.97053     -7351.3469      543          
    209000   301.19524     -7352.818       543          
    210000   324.27095     -7361.6832      544          
    211000   291.16526     -7371.7863      544          
    212000   369.50579     -7350.9925      544          
    213000   285.78705     -7375.6544      544          
    214000   313.89675     -7371.4337      544          
    215000   288.24142     -7376.2225      544          
    216000   326.84699     -7369.2522      544          
    217000   353.35004     -7357.0621      544          
    218000   279.35901     -7379.7128      544          
    219000   301.59573     -7377.8777      544          
    220000   307.59519     -7372.7863      544          
    221000   320.87907     -7380.0068      545          
    222000   301.32073     -7396.6149      546          
    223000   332.25557     -7394.9035      546          
    224000   313.61619     -7396.8784      546          
    225000   323.12863     -7397.7956      546          
    226000   267.80153     -7409.4554      546          
    227000   334.68021     -7392.3995      546          
    228000   256.26878     -7418.9497      546          
    229000   287.54106     -7406.1989      546          
    230000   297.98932     -7400.9046      546          
    231000   284.14527     -7405.1378      546          
    232000   246.48089     -7417.9167      546          
    233000   291.59805     -7403.3263      546          
    234000   301.95489     -7398.5173      546          
    235000   287.81494     -7408.5723      546          
    236000   293.96129     -7417.7006      547          
    237000   318.22075     -7416.8433      547          
    238000   270.98922     -7430.0615      547          
    239000   357.88732     -7400.3903      547          
    240000   298.71989     -7418.3085      547          
    241000   323.98925     -7409.0945      547          
    242000   317.06213     -7410.6433      547          
    243000   297.54217     -7417.809       547          
    244000   299.09746     -7419.855       547          
    245000   357.37702     -7404.2161      547          
    246000   315.77254     -7412.6744      547          
    247000   273.40007     -7424.8494      547          
    248000   298.4544      -7423.1111      547          
    249000   323.34441     -7414.424       547          
    250000   326.0282      -7410.7606      547          
    251000   334.43821     -7404.5644      547          
    252000   287.68435     -7424.3237      547          
    253000   297.77974     -7432.59        548          
    254000   293.46537     -7433.4756      548          
    255000   350.23247     -7417.9622      548          
    256000   293.83583     -7430.2159      548          
    257000   314.57229     -7423.4342      548          
    258000   301.34873     -7432.5485      548          
    259000   322.36591     -7446.7791      550          
    260000   304.38504     -7455.6433      550          
    261000   301.69881     -7453.5567      550          
    262000   249.39411     -7484.7078      551          
    263000   322.34568     -7465.3837      551          
    264000   268.47706     -7482.4441      551          
    265000   370.90432     -7446.8822      551          
    266000   303.13169     -7497.3864      553          
    267000   335.3887      -7491.9228      553          
    268000   302.60831     -7501.1474      553          
    269000   329.70069     -7501.992       554          
    270000   272.45698     -7521.9881      554          
    271000   307.57973     -7511.2698      554          
    272000   324.74523     -7504.6833      554          
    273000   304.63329     -7515.8169      554          
    274000   303.56341     -7515.7308      554          
    275000   280.17197     -7521.6504      554          
    276000   287.25537     -7521.666       554          
    277000   307.22117     -7509.6735      554          
    278000   292.45508     -7518.2605      554          
    279000   344.18567     -7503.9078      554          
    280000   302.70352     -7515.5382      554          
    281000   301.0688      -7515.6818      554          
    282000   329.25505     -7510.2242      554          
    283000   265.72161     -7526.9666      554          
    284000   290.00596     -7519.5653      554          
    285000   278.60484     -7521.2684      554          
    286000   306.70686     -7512.3142      554          
    287000   279.38802     -7517.8761      554          
    288000   299.8726      -7517.044       554          
    289000   298.01221     -7519.014       554          
    290000   307.90564     -7509.6937      554          
    291000   345.14933     -7506.1936      554          
    292000   272.73997     -7532.0379      554          
    293000   341.50951     -7507.9352      554          
    294000   284.87879     -7524.051       554          
    295000   273.03271     -7529.1397      554          
    296000   279.30977     -7524.5529      554          
    297000   293.13613     -7514.968       554          
    298000   367.09577     -7501.0712      554          
    299000   267.63728     -7528.7011      554          
    300000   322.45294     -7516.1253      554          
    301000   248.32617     -7535.2555      554          
    302000   327.19877     -7513.4108      554          
    303000   272.27152     -7531.8008      554          
    304000   315.13256     -7515.1809      554          
    305000   271.54831     -7533.3038      554          
    306000   313.72324     -7514.0755      554          
    307000   284.23479     -7527.5898      554          
    308000   318.15316     -7517.6572      554          
    309000   287.30154     -7525.9638      554          
    310000   336.06082     -7512.4015      554          
    311000   337.90881     -7505.808       554          
    312000   283.29661     -7530.1234      554          
    313000   311.34814     -7521.0051      554          
    314000   297.79966     -7523.3063      554          
    315000   322.63399     -7515.9913      554          
    316000   258.93903     -7533.7731      554          
    317000   334.80775     -7509.0127      554          
    318000   308.70232     -7519.3407      554          
    319000   330.16743     -7515.4034      554          
    320000   298.32451     -7522.8578      554          
    321000   270.59411     -7532.0937      554          
    322000   305.93476     -7527.7759      555          
    323000   295.54622     -7530.7756      555          
    324000   263.11216     -7543.8362      555          
    325000   340.76805     -7524.4308      555          
    326000   288.42933     -7538.6874      555          
    327000   303.09467     -7534.1846      555          
    328000   302.36155     -7532.1032      555          
    329000   334.56236     -7520.5404      555          
    330000   312.67054     -7532.9969      555          
    331000   352.45102     -7520.3006      555          
    332000   345.70075     -7519.0912      555          
    333000   346.2851      -7529.3159      556          
    334000   315.51358     -7550.7259      557          
    335000   263.19518     -7567.8614      557          
    336000   341.77314     -7543.2721      557          
    337000   286.14126     -7561.3116      557          
    338000   320.2405      -7544.1603      557          
    339000   318.41559     -7553.5712      557          
    340000   298.93185     -7559.6828      557          
    341000   272.53743     -7577.2556      558          
    342000   315.85063     -7563.7491      558          
    343000   301.52895     -7571.3723      558          
    344000   284.3001      -7574.3147      558          
    345000   311.7513      -7567.8474      558          
    346000   256.84557     -7583.6125      558          
    347000   302.57076     -7571.198       558          
    348000   301.26984     -7569.6364      558          
    349000   319.25561     -7567.5612      558          
    350000   276.79391     -7580.0828      558          
    351000   334.35495     -7561.1868      558          
    352000   311.35649     -7570.8343      558          
    353000   316.94413     -7571.0609      558          
    354000   303.15815     -7577.0554      558          
    355000   310.12795     -7578.0222      558          
    356000   338.40888     -7567.7841      558          
    357000   323.8143      -7569.1115      558          
    358000   318.29769     -7572.779       558          
    359000   260.86345     -7591.259       558          
    360000   301.63182     -7574.8049      558          
    361000   316.12607     -7572.6704      558          
    362000   348.04191     -7568.3449      558          
    363000   349.82806     -7581.4357      559          
    364000   318.83118     -7588.3163      559          
    365000   324.91617     -7584.4119      559          
    366000   285.11224     -7602.8253      560          
    367000   345.32485     -7594.6608      560          
    368000   289.30309     -7610.2309      560          
    369000   272.43746     -7612.7844      560          
    370000   293.80738     -7609.5453      560          
    371000   314.08302     -7603.7011      560          
    372000   309.85661     -7600.6136      560          
    373000   282.20791     -7611.0258      560          
    374000   324.69591     -7605.8274      560          
    375000   291.05495     -7614.0975      560          
    376000   279.38857     -7615.7111      560          
    377000   245.07473     -7625.7622      560          
    378000   328.84216     -7599.6231      560          
    379000   328.17572     -7600.901       560          
    380000   301.35938     -7610.0187      560          
    381000   288.14211     -7613.131       560          
    382000   286.96638     -7611.6441      560          
    383000   303.68949     -7610.1867      560          
    384000   314.85438     -7601.5953      560          
    385000   333.71215     -7597.4998      560          
    386000   312.21823     -7609.3077      560          
    387000   298.74411     -7610.0677      560          
    388000   289.50471     -7614.4445      560          
    389000   274.80895     -7614.3565      560          
    390000   325.94849     -7604.9733      560          
    391000   265.3829      -7621.5998      560          
    392000   346.27393     -7599.5053      560          
    393000   307.10674     -7603.8084      560          
    394000   329.98231     -7600.059       560          
    395000   298.43532     -7609.5155      560          
    396000   270.08126     -7619.5795      560          
    397000   345.56886     -7595.2748      560          
    398000   303.62765     -7605.8616      560          
    399000   304.62084     -7603.9479      560          
    400000   346.85374     -7591.3168      560          
    401000   317.01129     -7604.0333      560          
    402000   269.9713      -7619.7749      560          
    403000   294.79727     -7609.0487      560          
    404000   306.95202     -7604.3348      560          
    405000   320.04966     -7599.1349      560          
    406000   255.26306     -7623.7579      560          
    407000   307.22884     -7605.3159      560          
    408000   283.07251     -7617.6914      560          
    409000   322.40506     -7601.7947      560          
    410000   286.55688     -7613.6849      560          
    411000   285.82618     -7615.0405      560          
    412000   308.98927     -7607.8821      560          
    413000   294.04951     -7614.4187      560          
    414000   300.94979     -7604.1423      560          
    415000   296.29519     -7610.0866      560          
    416000   288.63075     -7614.3014      560          
    417000   353.71438     -7592.3537      560          
    418000   280.39228     -7618.3655      560          
    419000   267.81966     -7616.6834      560          
    420000   268.15448     -7620.672       560          
    421000   323.00585     -7600.4427      560          
    422000   260.59398     -7621.3227      560          
    423000   328.48146     -7601.4735      560          
    424000   363.6717      -7593.8714      560          
    425000   289.9468      -7613.6806      560          
    426000   281.98982     -7612.8093      560          
    427000   287.51568     -7613.9151      560          
    428000   325.30984     -7613.4864      561          
    429000   329.08238     -7614.1187      561          
    430000   280.24259     -7624.1457      561          
    431000   326.01919     -7611.6775      561          
    432000   280.7936      -7625.9008      561          
    433000   320.38881     -7614.2036      561          
    434000   298.21336     -7620.64        561          
    435000   289.60677     -7618.5901      561          
    436000   356.09187     -7599.6193      561          
    437000   284.02568     -7620.6585      561          
    438000   306.4203      -7621.3842      561          
    439000   289.52222     -7621.9097      561          
    440000   330.89351     -7608.6525      561          
    441000   285.53703     -7624.7834      561          
    442000   273.3265      -7623.3114      561          
    443000   323.92088     -7612.1467      561          
    444000   371.52322     -7606.9147      561          
    445000   325.09009     -7611.8977      561          
    446000   333.90996     -7614.7481      561          
    447000   318.39368     -7618.096       561          
    448000   309.57455     -7617.1327      561          
    449000   273.12192     -7624.3565      561          
    450000   295.48092     -7622.1946      561          
    451000   278.11264     -7626.89        561          
    452000   312.29152     -7610.541       561          
    453000   312.63366     -7614.9387      561          
    454000   338.69806     -7605.8545      561          
    455000   275.92832     -7622.0553      561          
    456000   311.52938     -7619.3006      561          
    457000   310.64862     -7616.2204      561          
    458000   271.3107      -7626.5091      561          
    459000   318.24387     -7616.3805      561          
    460000   326.67153     -7611.8881      561          
    461000   321.5456      -7612.4469      561          
    462000   280.42906     -7628.0483      561          
    463000   333.60608     -7606.6178      561          
    464000   283.91708     -7624.7571      561          
    465000   311.66835     -7615.0197      561          
    466000   346.28003     -7604.272       561          
    467000   271.81199     -7622.105       561          
    468000   313.0851      -7620.3753      561          
    469000   293.86137     -7618.9508      561          
    470000   300.47295     -7627.7583      561          
    471000   297.21968     -7627.8446      561          
    472000   330.23164     -7615.6042      561          
    473000   355.03505     -7606.4727      561          
    474000   282.85306     -7633.4271      562          
    475000   328.74904     -7625.2724      562          
    476000   293.65438     -7636.0744      562          
    477000   280.32213     -7639.3871      562          
    478000   328.95299     -7629.0302      562          
    479000   301.97262     -7635.4567      562          
    480000   290.63379     -7641.2079      562          
    481000   275.59437     -7644.085       562          
    482000   305.90857     -7637.9091      562          
    483000   318.76202     -7636.8274      562          
    484000   348.63539     -7628.0367      562          
    485000   296.88803     -7641.0315      562          
    486000   276.86779     -7650.3834      562          
    487000   332.14836     -7628.0588      562          
    488000   297.03261     -7642.3318      562          
    489000   313.42871     -7636.1508      562          
    490000   295.46566     -7643.7158      562          
    491000   305.52257     -7643.6691      562          
    492000   330.77653     -7634.8993      562          
    493000   342.13965     -7629.2345      562          
    494000   287.41358     -7648.4962      562          
    495000   336.91981     -7631.9002      562          
    496000   264.64765     -7655.1653      562          
    497000   338.38238     -7629.4267      562          
    498000   290.14379     -7647.1921      562          
    499000   314.80543     -7638.4081      562          
    500000   283.40036     -7654.662       563          
    501000   292.48485     -7657.6703      563          
    502000   275.7107      -7661.7216      563          
    503000   293.95574     -7658.5387      563          
    504000   358.30849     -7642.5545      563          
    505000   294.21818     -7655.8371      563          
    506000   364.29853     -7643.0363      563          
    507000   305.99436     -7657.4305      563          
    508000   310.13839     -7653.1762      563          
    509000   332.40294     -7650.0486      563          
    510000   342.62919     -7647.4969      563          
    511000   277.9607      -7661.9645      563          
    512000   323.85354     -7651.7968      563          
    513000   322.43814     -7652.6389      563          
    514000   303.11238     -7654.9266      563          
    515000   307.28692     -7654.9463      563          
    516000   310.18343     -7651.965       563          
    517000   284.86109     -7662.3634      563          
    518000   283.14906     -7664.9674      563          
    519000   309.61164     -7658.5918      563          
    520000   316.15357     -7657.4809      563          
    521000   266.84628     -7664.1241      563          
    522000   304.29523     -7657.8308      563          
    523000   320.52576     -7651.037       563          
    524000   294.92074     -7659.0057      563          
    525000   299.04533     -7654.4251      563          
    526000   293.77755     -7657.801       563          
    527000   318.95221     -7653.2786      563          
    528000   281.61367     -7664.0707      563          
    529000   262.64069     -7669.1632      563          
    530000   344.06471     -7642.9157      563          
    531000   290.17538     -7659.623       563          
    532000   285.06436     -7661.3997      563          
    533000   296.92573     -7658.7694      563          
    534000   287.2472      -7661.6358      563          
    535000   293.05514     -7661.4015      563          
    536000   304.76104     -7661.136       563          
    537000   364.32793     -7638.1294      563          
    538000   308.52803     -7656.5937      563          
    539000   293.3474      -7655.8194      563          
    540000   319.26105     -7649.4035      563          
    541000   305.32588     -7655.3318      563          
    542000   319.43533     -7653.7046      563          
    543000   294.98939     -7656.2323      563          
    544000   301.63294     -7660.9177      563          
    545000   316.44756     -7655.7769      563          
    546000   274.19874     -7661.8201      563          
    547000   338.45539     -7645.7307      563          
    548000   283.19245     -7665.465       563          
    549000   308.08187     -7656.1866      563          
    550000   327.88334     -7648.4704      563          
    551000   307.82398     -7657.8471      563          
    552000   324.41607     -7647.5262      563          
    553000   274.2597      -7665.3386      563          
    554000   355.19507     -7640.3086      563          
    555000   297.75373     -7657.5047      563          
    556000   292.28826     -7661.4772      563          
    557000   303.14249     -7658.0949      563          
    558000   265.58857     -7668.2292      563          
    559000   324.49702     -7654.0337      563          
    560000   265.98245     -7668.0976      563          
    561000   297.51947     -7657.7434      563          
    562000   284.33753     -7664.3821      563          
    563000   271.48187     -7664.9462      563          
    564000   334.13646     -7647.2163      563          
    565000   319.92387     -7655.0749      563          
    566000   328.46695     -7651.7301      563          
    567000   297.3245      -7660.8837      563          
    568000   300.68493     -7658.2079      563          
    569000   323.80574     -7652.2561      563          
    570000   286.7981      -7662.0088      563          
    571000   285.21855     -7662.3355      563          
    572000   279.60809     -7661.6555      563          
    573000   293.8865      -7656.9295      563          
    574000   348.34386     -7644.7628      563          
    575000   280.33927     -7667.6204      563          
    576000   326.47408     -7653.7406      563          
    577000   326.11907     -7647.0088      563          
    578000   290.95271     -7665.0738      563          
    579000   319.07407     -7655.0785      563          
    580000   329.87532     -7649.1897      563          
    581000   283.78822     -7662.5932      563          
    582000   338.41711     -7646.4693      563          
    583000   277.29862     -7665.9207      563          
    584000   292.78879     -7658.5842      563          
    585000   334.20458     -7648.3815      563          
    586000   289.23381     -7663.6073      563          
    587000   352.10792     -7649.3183      563          
    588000   298.36153     -7662.7606      563          
    589000   317.2612      -7648.4217      563          
    590000   277.40832     -7669.9873      563          
    591000   363.75194     -7640.761       563          
    592000   277.80216     -7666.5986      563          
    593000   306.77457     -7659.5214      563          
    594000   271.39209     -7668.4049      563          
    595000   312.53439     -7658.2889      563          
    596000   328.04263     -7654.8963      563          
    597000   329.72854     -7646.2402      563          
    598000   265.68429     -7667.0697      563          
    599000   283.11585     -7666.6486      563          
    600000   297.81344     -7658.3733      563          
    601000   311.03846     -7657.7369      563          
    602000   317.35054     -7655.5083      563          
    603000   323.92064     -7653.1097      563          
    604000   267.92829     -7666.9921      563          
    605000   291.10896     -7664.7682      563          
    606000   272.8561      -7669.3638      563          
    607000   295.1111      -7662.6612      563          
    608000   293.19341     -7659.2011      563          
    609000   311.47154     -7656.253       563          
    610000   297.99439     -7656.6525      563          
    611000   299.51122     -7656.0116      563          
    612000   270.40201     -7666.7221      563          
    613000   310.14453     -7660.7492      563          
    614000   314.30052     -7654.0781      563          
    615000   289.23987     -7661.1475      563          
    616000   374.60667     -7644.6447      563          
    617000   282.03132     -7663.9857      563          
    618000   320.84311     -7656.6181      563          
    619000   286.52238     -7661.6488      563          
    620000   289.36234     -7664.4862      563          
    621000   282.51737     -7662.88        563          
    622000   317.38106     -7653.2858      563          
    623000   305.13093     -7656.648       563          
    624000   307.4924      -7659.8524      563          
    625000   348.94399     -7642.3359      563          
    626000   305.82888     -7659.5916      563          
    627000   256.68845     -7671.6175      563          
    628000   306.41679     -7655.8115      563          
    629000   325.77297     -7647.9843      563          
    630000   308.77977     -7657.8039      563          
    631000   292.85732     -7663.7281      563          
    632000   283.81935     -7663.4213      563          
    633000   280.03341     -7665.7057      563          
    634000   288.38462     -7663.3067      563          
    635000   295.68786     -7661.9981      563          
    636000   324.13999     -7650.7822      563          
    637000   331.55478     -7653.2879      563          
    638000   303.91619     -7657.0321      563          
    639000   298.09315     -7663.3614      563          
    640000   366.10196     -7633.4374      563          
    641000   296.04005     -7661.0468      563          
    642000   305.52663     -7661.455       563          
    643000   391.50317     -7633.0643      563          
    644000   256.30321     -7671.2582      563          
    645000   326.63231     -7650.2307      563          
    646000   295.38399     -7663.2022      563          
    647000   330.24949     -7655.8576      564          
    648000   284.85391     -7672.364       564          
    649000   340.38806     -7660.8477      564          
    650000   299.99851     -7677.3497      564          
    651000   311.30868     -7671.5021      564          
    652000   295.71527     -7674.1461      564          
    653000   294.52569     -7674.5659      564          
    654000   302.80899     -7674.5191      564          
    655000   280.24159     -7682.3708      564          
    656000   286.44059     -7676.7893      564          
    657000   295.00025     -7674.0092      564          
    658000   297.75497     -7671.9301      564          
    659000   311.93621     -7672.194       564          
    660000   295.52428     -7678.2869      564          
    661000   330.64964     -7666.0449      564          
    662000   266.07374     -7676.7455      564          
    663000   297.40534     -7673.0787      564          
    664000   327.23342     -7669.2779      564          
    665000   286.82202     -7682.7728      564          
    666000   307.61582     -7670.7924      564          
    667000   294.89391     -7676.3206      564          
    668000   305.56901     -7670.5494      564          
    669000   311.77373     -7670.151       564          
    670000   318.06142     -7671.1266      564          
    671000   263.94886     -7686.5327      564          
    672000   311.43435     -7683.2065      565          
    673000   269.20711     -7695.7233      565          
    674000   301.58544     -7686.6094      565          
    675000   296.75401     -7677.9408      565          
    676000   327.56739     -7675.4653      565          
    677000   296.00402     -7687.4167      565          
    678000   273.95466     -7693.4928      565          
    679000   304.76941     -7681.701       565          
    680000   302.26812     -7687.2167      565          
    681000   290.3429      -7684.3005      565          
    682000   314.48994     -7682.2284      565          
    683000   288.73501     -7685.6534      565          
    684000   303.91372     -7687.1878      565          
    685000   319.37911     -7681.7627      565          
    686000   328.17071     -7675.0358      565          
    687000   292.9415      -7693.4241      565          
    688000   307.36513     -7690.4145      565          
    689000   333.98547     -7675.9421      565          
    690000   285.56425     -7689.1183      565          
    691000   313.94735     -7678.7073      565          
    692000   331.49142     -7682.024       565          
    693000   280.02421     -7697.0647      565          
    694000   317.84        -7685.475       565          
    695000   277.85749     -7699.663       565          
    696000   317.4544      -7683.5347      565          
    697000   278.02663     -7690.6767      565          
    698000   265.60019     -7697.5573      565          
    699000   311.75849     -7686.4736      565          
    700000   273.81333     -7695.5105      565          
    701000   325.35594     -7682.4054      565          
    702000   279.41414     -7692.4424      565          
    703000   292.79848     -7692.2051      565          
    704000   312.26162     -7687.131       565          
    705000   328.63344     -7679.2137      565          
    706000   308.51319     -7684.1701      565          
    707000   332.17356     -7684.215       565          
    708000   307.70688     -7686.9527      565          
    709000   264.85856     -7701.2981      565          
    710000   323.31815     -7680.6934      565          
    711000   366.95886     -7669.7884      565          
    712000   292.78625     -7690.4031      565          
    713000   293.07162     -7693.4779      565          
    714000   246.89229     -7708.2343      565          
    715000   328.48217     -7683.1709      565          
    716000   312.87227     -7685.0154      565          
    717000   312.07387     -7685.5042      565          
    718000   358.12413     -7671.0833      565          
    719000   308.06658     -7693.2852      565          
    720000   284.73339     -7697.5684      565          
    721000   317.54028     -7688.1487      565          
    722000   323.95934     -7685.0065      565          
    723000   290.92914     -7695.0694      565          
    724000   332.2814      -7685.4467      565          
    725000   277.70508     -7697.7243      565          
    726000   301.23146     -7690.4849      565          
    727000   328.16848     -7685.3263      565          
    728000   320.44668     -7685.326       565          
    729000   309.28081     -7683.4557      565          
    730000   276.87617     -7698.6984      565          
    731000   287.24368     -7694.8753      565          
    732000   269.04756     -7698.7198      565          
    733000   300.24403     -7691.3465      565          
    734000   363.65727     -7674.621       565          
    735000   286.40673     -7695.6195      565          
    736000   321.32377     -7697.6283      566          
    737000   279.83926     -7711.2404      566          
    738000   285.96023     -7706.6824      566          
    739000   328.16413     -7700.7129      566          
    740000   306.78135     -7704.9576      566          
    741000   283.00184     -7708.6713      566          
    742000   355.38484     -7690.0774      566          
    743000   286.24599     -7704.1246      566          
    744000   310.54208     -7697.3836      566          
    745000   264.5538      -7714.1085      566          
    746000   324.35618     -7698.9508      566          
    747000   275.43546     -7708.3013      566          
    748000   307.15105     -7699.4782      566          
    749000   289.23172     -7709.0875      566          
    750000   270.87835     -7716.7919      566          
    751000   333.35779     -7697.6165      566          
    752000   265.37051     -7710.1391      566          
    753000   314.11097     -7694.2268      566          
    754000   306.07006     -7699.7329      566          
    755000   305.92992     -7703.3864      566          
    756000   293.8656      -7708.4524      566          
    757000   319.05792     -7700.6817      566          
    758000   305.21122     -7698.2826      566          
    759000   332.41768     -7693.2359      566          
    760000   308.02252     -7703.5348      566          
    761000   294.21379     -7707.3173      566          
    762000   276.59739     -7709.176       566          
    763000   344.23563     -7688.6908      566          
    764000   314.1612      -7703.5607      566          
    765000   320.49711     -7696.4833      566          
    766000   295.9324      -7702.8065      566          
    767000   298.75381     -7702.382       566          
    768000   325.42159     -7697.3016      566          
    769000   284.73095     -7709.7631      566          
    770000   288.47866     -7703.7817      566          
    771000   274.20228     -7710.1107      566          
    772000   319.19598     -7698.692       566          
    773000   284.58753     -7711.0217      566          
    774000   335.26444     -7693.7649      566          
    775000   274.24281     -7709.0486      566          
    776000   310.01979     -7700.3192      566          
    777000   289.74927     -7706.1904      566          
    778000   327.30351     -7696.8767      566          
    779000   367.13033     -7681.7246      566          
    780000   289.76677     -7709.5262      566          
    781000   333.70742     -7695.8929      566          
    782000   280.76321     -7705.8622      566          
    783000   265.48683     -7712.1346      566          
    784000   321.04812     -7703.5916      566          
    785000   280.59922     -7706.3445      566          
    786000   316.8533      -7700.2558      566          
    787000   315.50978     -7702.5673      566          
    788000   337.89356     -7696.2225      566          
    789000   288.10049     -7706.4372      566          
    790000   316.05323     -7699.3413      566          
    791000   296.18497     -7702.5818      566          
    792000   297.38678     -7707.0415      566          
    793000   241.48891     -7717.5553      566          
    794000   305.70335     -7702.3489      566          
    795000   296.25619     -7701.8283      566          
    796000   304.01774     -7702.2008      566          
    797000   273.07724     -7712.8542      566          
    798000   334.99539     -7690.2903      566          
    799000   284.85225     -7709.295       566          
    800000   323.99126     -7696.1066      566          
    801000   297.16445     -7705.8307      566          
    802000   268.27216     -7710.9281      566          
    803000   293.76122     -7707.2848      566          
    804000   344.52068     -7693.297       566          
    805000   293.36252     -7709.8528      566          
    806000   269.83961     -7713.0142      566          
    807000   289.01138     -7706.3902      566          
    808000   347.63856     -7689.5134      566          
    809000   352.23525     -7697.0663      566          
    810000   290.39628     -7705.8149      566          
    811000   319.05132     -7696.9203      566          
    812000   310.24006     -7703.657       566          
    813000   251.07955     -7716.7089      566          
    814000   351.77112     -7693.0848      566          
    815000   306.13216     -7701.7076      566          
    816000   291.43896     -7708.0816      566          
    817000   349.52291     -7691.4219      566          
    818000   344.19174     -7697.321       566          
    819000   331.20334     -7695.9308      566          
    820000   318.97287     -7699.1838      566          
    821000   277.51222     -7703.5557      566          
    822000   285.67218     -7708.8743      566          
    823000   286.77381     -7703.6425      566          
    824000   253.83348     -7719.0783      566          
    825000   287.22807     -7704.2489      566          
    826000   310.36461     -7700.1564      566          
    827000   291.7519      -7708.942       566          
    828000   304.67138     -7699.4486      566          
    829000   291.28837     -7707.4917      566          
    830000   300.7965      -7702.7668      566          
    831000   254.85781     -7714.2521      566          
    832000   272.0356      -7713.7724      566          
    833000   293.18906     -7703.1827      566          
    834000   323.42787     -7694.601       566          
    835000   310.97851     -7699.7143      566          
    836000   290.64216     -7710.0108      566          
    837000   341.1047      -7695.343       566          
    838000   343.01803     -7692.2686      566          
    839000   277.60417     -7707.8138      566          
    840000   307.87282     -7699.0592      566          
    841000   291.37031     -7706.9837      566          
    842000   286.05684     -7712.4602      566          
    843000   312.55297     -7701.6136      566          
    844000   285.62491     -7708.365       566          
    845000   304.77847     -7699.1718      566          
    846000   325.41039     -7703.2148      566          
    847000   262.92491     -7716.0153      566          
    848000   308.06336     -7700.1808      566          
    849000   314.3095      -7699.8079      566          
    850000   309.61297     -7701.8182      566          
    851000   312.32751     -7700.8403      566          
    852000   321.0285      -7700.7571      566          
    853000   306.08502     -7704.231       566          
    854000   296.8465      -7702.7055      566          
    855000   315.08659     -7699.4119      566          
    856000   319.31807     -7701.3509      566          
    857000   312.84759     -7702.0506      566          
    858000   267.19951     -7710.924       566          
    859000   305.5527      -7701.5197      566          
    860000   287.01637     -7713.3305      566          
    861000   289.83571     -7708.7099      566          
    862000   334.42243     -7694.6604      566          
    863000   301.64815     -7696.3148      566          
    864000   331.49703     -7692.2253      566          
    865000   279.00618     -7714.1721      566          
    866000   340.38886     -7697.7252      566          
    867000   288.38871     -7710.8242      566          
    868000   325.89794     -7691.7253      566          
    869000   297.9504      -7705.9436      566          
    870000   315.66482     -7702.3739      566          
    871000   320.31211     -7696.5592      566          
    872000   313.60568     -7700.8521      566          
    873000   304.89153     -7703.2081      566          
    874000   285.87548     -7712.4993      566          
    875000   279.13235     -7711.2499      566          
    876000   276.19966     -7709.9566      566          
    877000   339.56636     -7697.5106      566          
    878000   277.13356     -7710.757       566          
    879000   309.32847     -7699.6745      566          
    880000   305.21247     -7708.306       566          
    881000   290.61015     -7706.3083      566          
    882000   352.94551     -7693.6466      566          
    883000   287.29272     -7704.0658      566          
    884000   290.00534     -7704.7584      566          
    885000   299.57103     -7700.91        566          
    886000   320.21783     -7700.2998      566          
    887000   315.04035     -7698.784       566          
    888000   254.04189     -7713.5345      566          
    889000   324.80978     -7701.045       566          
    890000   314.50518     -7707.171       566          
    891000   279.64923     -7714.4263      566          
    892000   303.71592     -7703.469       566          
    893000   330.41462     -7695.2711      566          
    894000   353.93057     -7692.1285      566          
    895000   273.63668     -7714.1269      566          
    896000   300.21775     -7701.8269      566          
    897000   306.33002     -7704.3408      566          
    898000   353.53653     -7692.805       566          
    899000   280.5129      -7710.0391      566          
    900000   308.15848     -7706.315       566          
    901000   344.04053     -7694.759       566          
    902000   275.06336     -7714.0101      566          
    903000   358.37957     -7691.2033      566          
    904000   257.12565     -7711.5233      566          
    905000   321.01746     -7694.2843      566          
    906000   273.91434     -7712.2278      566          
    907000   331.85946     -7702.2885      566          
    908000   281.8199      -7712.3715      566          
    909000   323.65867     -7693.6745      566          
    910000   328.36092     -7694.8157      566          
    911000   275.34524     -7713.3583      566          
    912000   318.37259     -7700.7697      566          
    913000   291.94025     -7705.22        566          
    914000   293.60383     -7705.8721      566          
    915000   278.32215     -7712.6012      566          
    916000   286.00299     -7709.785       566          
    917000   324.27515     -7701.0233      566          
    918000   347.16012     -7689.8667      566          
    919000   315.78428     -7698.5926      566          
    920000   319.9449      -7696.5468      566          
    921000   322.2736      -7698.7457      566          
    922000   300.21549     -7706.2918      566          
    923000   328.00501     -7691.0687      566          
    924000   279.88024     -7712.309       566          
    925000   290.93904     -7703.0175      566          
    926000   305.34293     -7702.9645      566          
    927000   297.22624     -7705.4169      566          
    928000   326.46298     -7698.6671      566          
    929000   351.42228     -7690.1441      566          
    930000   287.08508     -7710.4812      566          
    931000   287.3883      -7708.0043      566          
    932000   310.72305     -7706.2059      566          
    933000   273.92407     -7712.5797      566          
    934000   322.97678     -7695.7878      566          
    935000   301.40845     -7707.1006      566          
    936000   343.96317     -7693.9805      566          
    937000   263.75017     -7712.1256      566          
    938000   291.32366     -7719.6508      567          
    939000   293.96566     -7720.9922      567          
    940000   303.37511     -7714.4706      567          
    941000   340.35467     -7705.5782      567          
    942000   312.20267     -7720.3233      567          
    943000   343.28966     -7707.5557      567          
    944000   315.26396     -7711.0104      567          
    945000   293.19384     -7721.2662      567          
    946000   313.06272     -7713.3366      567          
    947000   315.99171     -7714.2285      567          
    948000   343.09734     -7701.472       567          
    949000   301.15408     -7716.7402      567          
    950000   298.61735     -7720.4879      567          
    951000   308.47768     -7718.6765      567          
    952000   392.28358     -7694.9573      567          
    953000   296.05676     -7718.1225      567          
    954000   299.0593      -7712.8129      567          
    955000   283.58354     -7722.5438      567          
    956000   295.13582     -7719.2396      567          
    957000   300.73818     -7722.3124      567          
    958000   305.23111     -7718.7021      567          
    959000   290.81895     -7722.1126      567          
    960000   302.91969     -7716.0775      567          
    961000   302.54476     -7714.1413      567          
    962000   298.30407     -7717.819       567          
    963000   311.72907     -7719.1059      567          
    964000   277.31592     -7720.5989      567          
    965000   324.15303     -7707.3377      567          
    966000   289.8918      -7720.9515      567          
    967000   300.69769     -7716.8699      567          
    968000   283.2534      -7720.6371      567          
    969000   354.41015     -7704.3276      567          
    970000   329.62071     -7710.3908      567          
    971000   303.37148     -7716.3862      567          
    972000   340.46882     -7708.5269      567          
    973000   291.68278     -7721.653       567          
    974000   314.74517     -7705.9746      567          
    975000   336.80846     -7705.4555      567          
    976000   274.8588      -7725.3152      567          
    977000   308.72607     -7716.9258      567          
    978000   293.66019     -7716.8757      567          
    979000   342.61318     -7710.4735      567          
    980000   298.46087     -7722.6037      567          
    981000   284.46635     -7722.4193      567          
    982000   333.45716     -7708.4316      567          
    983000   286.13542     -7724.2182      567          
    984000   320.66975     -7711.8409      567          
    985000   277.15589     -7726.665       567          
    986000   307.48864     -7715.7833      567          
    987000   301.11696     -7717.9724      567          
    988000   301.79965     -7713.7797      567          
    989000   294.34243     -7721.9726      567          
    990000   268.59256     -7728.5542      567          
    991000   300.98416     -7719.3299      567          
    992000   354.38551     -7700.1583      567          
    993000   332.1158      -7707.1292      567          
    994000   325.50342     -7708.8635      567          
    995000   313.96063     -7706.6215      567          
    996000   331.34195     -7705.8641      567          
    997000   277.02378     -7726.5611      567          
    998000   285.64255     -7724.5894      567          
    999000   310.43848     -7713.4876      567          
   1000000   296.95467     -7719.5902      567          
   1001000   311.70811     -7712.2971      567          
   1002000   319.28797     -7711.7348      567          
   1003000   317.37719     -7720.0354      567          
   1004000   271.69822     -7730.2039      567          
   1005000   288.72795     -7722.5402      567          
   1006000   312.50482     -7710.8787      567          
   1007000   280.06371     -7719.1328      567          
   1008000   345.41167     -7698.7562      567          
   1009000   320.18211     -7707.1185      567          
   1010000   266.83261     -7727.2211      567          
   1011000   364.86915     -7704.4818      567          
   1012000   258.85473     -7730.0436      567          
   1013000   321.70769     -7710.6107      567          
   1014000   316.48624     -7713.1829      567          
   1015000   301.52746     -7715.5271      567          
   1016000   304.85592     -7716.0837      567          
   1017000   381.17068     -7695.486       567          
   1018000   320.6153      -7711.9244      567          
   1019000   298.49075     -7716.6801      567          
   1020000   322.2983      -7712.2809      567          
   1021000   290.1835      -7724.0249      567          
   1022000   320.1666      -7709.6202      567          
   1023000   312.24806     -7715.0428      567          
   1024000   333.72646     -7708.9339      567          
   1025000   326.01963     -7712.3078      567          
   1026000   312.90562     -7710.5968      567          
   1027000   340.71923     -7705.2086      567          
   1028000   286.1969      -7726.4154      567          
   1029000   310.30639     -7709.4499      567          
   1030000   310.23788     -7714.7737      567          
   1031000   316.33923     -7720.491       567          
   1032000   357.1376      -7708.8247      567          
   1033000   325.84387     -7714.439       567          
   1034000   288.5846      -7721.3016      567          
   1035000   306.8609      -7722.3154      567          
   1036000   281.77934     -7726.7548      567          
   1037000   318.92782     -7719.3217      567          
   1038000   319.42898     -7720.8137      567          
   1039000   355.54807     -7707.9611      567          
   1040000   312.33924     -7718.1213      567          
   1041000   267.70547     -7733.0162      567          
   1042000   295.69698     -7725.5595      567          
   1043000   265.51498     -7736.6715      567          
   1044000   291.29597     -7730.2056      567          
   1045000   308.13324     -7722.7587      567          
   1046000   290.40454     -7725.8076      567          
   1047000   301.72043     -7722.941       567          
   1048000   287.32045     -7724.514       567          
   1049000   331.63152     -7714.4026      567          
   1050000   265.43386     -7733.8452      567          
   1051000   322.19368     -7719.1288      567          
   1052000   302.72187     -7724.6644      567          
   1053000   338.67425     -7711.1907      567          
   1054000   295.68516     -7724.8292      567          
   1055000   340.3345      -7713.1706      567          
   1056000   322.83926     -7716.097       567          
   1057000   309.61187     -7725.375       567          
   1058000   316.18239     -7718.3362      567          
   1059000   284.00388     -7728.9634      567          
   1060000   339.96043     -7713.3082      567          
   1061000   335.86278     -7714.9752      567          
   1062000   313.86591     -7720.7193      567          
   1063000   333.63967     -7716.3693      567          
   1064000   289.57242     -7725.8083      567          
   1065000   291.73734     -7726.1864      567          
   1066000   306.67668     -7722.9362      567          
   1067000   290.74652     -7719.0813      567          
   1068000   335.01013     -7711.3384      567          
   1069000   284.42798     -7729.9141      567          
   1070000   329.47701     -7712.9428      567          
   1071000   287.15413     -7726.924       567          
   1072000   314.78579     -7718.9246      567          
   1073000   290.53721     -7726.7428      567          
   1074000   257.9273      -7736.4101      567          
   1075000   335.17894     -7710.5826      567          
   1076000   303.07379     -7725.2269      567          
   1077000   303.93421     -7723.0308      567          
   1078000   267.61131     -7733.0596      567          
   1079000   312.54769     -7719.6093      567          
   1080000   316.27731     -7716.8814      567          
   1081000   332.71211     -7719.8133      567          
   1082000   356.57022     -7705.4952      567          
   1083000   271.34584     -7727.9415      567          
   1084000   307.49752     -7724.9812      567          
   1085000   272.22405     -7736.0572      567          
   1086000   309.18913     -7723.2175      567          
   1087000   270.77854     -7729.3257      567          
   1088000   316.84061     -7720.343       567          
   1089000   279.75595     -7732.5956      567          
   1090000   316.59791     -7713.2608      567          
   1091000   276.32684     -7728.3452      567          
   1092000   300.53557     -7722.0788      567          
   1093000   321.30744     -7719.7484      567          
   1094000   308.34379     -7719.7482      567          
   1095000   359.27264     -7711.0282      567          
   1096000   301.88937     -7724.3702      567          
   1097000   322.56069     -7720.5893      567          
   1098000   313.57671     -7721.3656      567          
   1099000   290.21961     -7725.8849      567          
   1100000   290.78516     -7726.2222      567          
   1101000   269.5452      -7734.9753      567          
   1102000   310.56813     -7721.917       567          
   1103000   313.12303     -7721.4941      567          
   1104000   308.83121     -7716.4618      567          
   1105000   331.45132     -7712.1851      567          
   1106000   268.38845     -7734.0587      567          
   1107000   334.45036     -7710.4907      567          
   1108000   295.04611     -7726.632       567          
   1109000   292.63593     -7725.5959      567          
   1110000   232.09904     -7742.4237      567          
   1111000   302.89154     -7720.5312      567          
   1112000   325.84564     -7722.593       568          
   1113000   324.49534     -7729.1087      568          
   1114000   312.24835     -7735.5897      568          
   1115000   315.00549     -7736.3003      568          
   1116000   334.00404     -7725.0134      568          
   1117000   292.47928     -7734.0922      568          
   1118000   286.33484     -7739.8238      568          
   1119000   302.57319     -7732.1194      568          
   1120000   264.51628     -7741.0457      568          
   1121000   306.5377      -7732.8885      568          
   1122000   300.37072     -7737.4562      568          
   1123000   302.40504     -7735.6931      568          
   1124000   289.89691     -7738.2894      568          
   1125000   357.08266     -7717.5181      568          
   1126000   307.85455     -7728.9985      568          
   1127000   307.33284     -7735.4997      568          
   1128000   341.54528     -7727.092       568          
   1129000   298.23017     -7734.8173      568          
   1130000   328.7026      -7728.0778      568          
   1131000   262.05755     -7747.4544      568          
   1132000   352.97        -7718.8103      568          
   1133000   292.6302      -7738.9355      568          
   1134000   317.07666     -7731.1032      568          
   1135000   309.76998     -7730.3199      568          
   1136000   291.97646     -7742.0454      568          
   1137000   309.22822     -7730.4302      568          
   1138000   328.85673     -7725.7598      568          
   1139000   315.08264     -7730.3655      568          
   1140000   289.47466     -7740.8251      568          
   1141000   346.64447     -7724.9351      568          
   1142000   275.89213     -7743.7481      568          
   1143000   310.63179     -7734.2612      568          
   1144000   299.01739     -7737.4756      568          
   1145000   314.47269     -7731.3255      568          
   1146000   314.03045     -7736.2036      568          
   1147000   320.80766     -7727.8999      568          
   1148000   334.69627     -7729.2523      568          
   1149000   306.81672     -7736.7293      568          
   1150000   328.71127     -7731.2631      568          
   1151000   301.30539     -7736.4278      568          
   1152000   279.96681     -7743.8295      568          
   1153000   295.64962     -7737.0833      568          
   1154000   334.03225     -7724.2696      568          
   1155000   284.13608     -7738.65        568          
   1156000   286.01853     -7733.7278      568          
   1157000   281.70185     -7739.3993      568          
   1158000   336.1063      -7726.4215      568          
   1159000   276.73702     -7752.8729      569          
   1160000   314.68565     -7745.5235      569          
   1161000   330.20742     -7738.0282      569          
   1162000   277.92496     -7753.2763      569          
   1163000   289.18595     -7752.5851      569          
   1164000   342.70946     -7739.7222      569          
   1165000   301.73133     -7748.4933      569          
   1166000   286.97067     -7750.5238      569          
   1167000   271.02171     -7764.5708      570          
   1168000   303.80252     -7760.6081      570          
   1169000   293.56831     -7764.9509      570          
   1170000   339.17362     -7757.0811      570          
   1171000   310.57784     -7754.5946      570          
   1172000   288.70695     -7768.5339      570          
   1173000   303.94379     -7768.5796      570          
   1174000   295.88515     -7760.114       570          
   1175000   287.39259     -7764.3505      570          
   1176000   298.41561     -7763.5729      570          
   1177000   323.68023     -7762.6258      570          
   1178000   326.3351      -7758.678       570          
   1179000   322.74081     -7757.4669      570          
   1180000   312.05744     -7759.229       570          
   1181000   283.16889     -7770.1528      570          
   1182000   314.82201     -7763.1667      570          
   1183000   340.15263     -7755.528       570          
   1184000   325.74523     -7751.2995      570          
   1185000   320.98478     -7754.7305      570          
   1186000   313.77633     -7763.014       570          
   1187000   284.63309     -7768.823       570          
   1188000   328.73081     -7753.379       570          
   1189000   277.94021     -7771.7264      570          
   1190000   318.28918     -7758.7066      570          
   1191000   268.63249     -7772.4299      570          
   1192000   295.21392     -7768.9736      570          
   1193000   305.5643      -7762.7025      570          
   1194000   268.04167     -7769.3297      570          
   1195000   280.41367     -7770.5574      570          
   1196000   313.83302     -7758.3057      570          
   1197000   266.27785     -7771.4901      570          
   1198000   320.11127     -7760.867       570          
   1199000   294.8035      -7765.0167      570          
   1200000   285.12987     -7766.8679      570          
   1201000   314.93198     -7761.4585      570          
   1202000   304.31197     -7759.1358      570          
   1203000   291.01962     -7767.6802      570          
   1204000   290.54029     -7768.4289      570          
   1205000   306.46116     -7758.0479      570          
   1206000   315.96406     -7754.6485      570          
   1207000   310.8887      -7764.903       570          
   1208000   309.28047     -7761.2907      570          
   1209000   292.15903     -7766.9472      570          
   1210000   324.28139     -7752.3543      570          
   1211000   340.2566      -7750.1503      570          
   1212000   288.16781     -7767.579       570          
   1213000   277.49311     -7768.8911      570          
   1214000   305.66908     -7766.2037      570          
   1215000   295.97328     -7764.4013      570          
   1216000   311.29283     -7760.003       570          
   1217000   318.92812     -7758.7972      570          
   1218000   316.0798      -7769.1839      571          
   1219000   283.4712      -7778.165       571          
   1220000   268.19961     -7786.202       571          
   1221000   285.38468     -7779.2626      571          
   1222000   300.63616     -7775.1318      571          
   1223000   284.82245     -7784.2643      571          
   1224000   334.26091     -7766.9643      571          
   1225000   332.39692     -7767.0932      571          
   1226000   335.25381     -7770.0649      571          
   1227000   302.61884     -7777.3607      571          
   1228000   269.55399     -7786.9425      571          
   1229000   344.971       -7768.2644      571          
   1230000   285.69816     -7782.6379      571          
   1231000   351.70811     -7772.0985      572          
   1232000   351.94084     -7776.5801      572          
   1233000   323.50394     -7781.5671      572          
   1234000   305.78142     -7788.9247      572          
   1235000   329.80484     -7786.9978      572          
   1236000   299.27498     -7789.3837      572          
   1237000   297.58575     -7788.9995      572          
   1238000   311.69084     -7787.9286      572          
   1239000   331.96446     -7781.3499      572          
   1240000   275.64089     -7797.5887      572          
   1241000   323.40963     -7785.732       572          
   1242000   327.15509     -7784.096       572          
   1243000   298.60153     -7788.1213      572          
   1244000   307.80281     -7788.8585      572          
   1245000   338.65983     -7779.0355      572          
   1246000   337.60333     -7783.248       572          
   1247000   307.87443     -7786.3951      572          
   1248000   275.20973     -7797.7474      572          
   1249000   270.98725     -7796.7159      572          
   1250000   328.34035     -7782.7751      572          
   1251000   310.19087     -7786.9938      572          
   1252000   324.06622     -7784.0034      572          
   1253000   281.83024     -7798.3019      572          
   1254000   342.58526     -7776.803       572          
   1255000   301.39443     -7793.313       572          
   1256000   306.20163     -7787.0991      572          
   1257000   331.91367     -7781.961       572          
   1258000   286.54432     -7796.0581      572          
   1259000   386.03752     -7767.8194      572          
   1260000   302.39511     -7789.6741      572          
   1261000   324.90233     -7781.0664      572          
   1262000   298.21125     -7794.0071      572          
   1263000   356.57147     -7775.2175      572          
   1264000   286.49075     -7793.5818      572          
   1265000   301.06353     -7792.6009      572          
   1266000   272.81603     -7795.2411      572          
   1267000   345.26672     -7778.5825      572          
   1268000   325.66929     -7785.8077      572          
   1269000   276.80018     -7796.388       572          
   1270000   325.6445      -7785.8188      572          
   1271000   294.33714     -7789.4104      572          
   1272000   318.20209     -7785.554       572          
   1273000   266.22789     -7803.6025      572          
   1274000   277.89891     -7796.4617      572          
   1275000   293.69884     -7791.6132      572          
   1276000   310.99901     -7788.3005      572          
   1277000   264.00842     -7803.3344      572          
   1278000   357.04378     -7776.4545      572          
   1279000   256.27535     -7805.3075      572          
   1280000   379.72624     -7772.2438      572          
   1281000   269.8738      -7798.5911      572          
   1282000   357.83434     -7777.9802      572          
   1283000   308.52129     -7791.5724      572          
   1284000   269.9075      -7797.4611      572          
   1285000   309.53868     -7785.9448      572          
   1286000   306.29011     -7789.6588      572          
   1287000   305.69959     -7787.2065      572          
   1288000   314.64344     -7786.9134      572          
   1289000   337.04008     -7781.5758      572          
   1290000   307.58584     -7792.3907      572          
   1291000   332.8262      -7778.6222      572          
   1292000   311.63728     -7786.4445      572          
   1293000   281.70032     -7798.3958      572          
   1294000   265.492       -7799.9598      572          
   1295000   303.93472     -7787.6535      572          
   1296000   312.47642     -7790.4642      572          
   1297000   319.6584      -7785.4637      572          
   1298000   318.07259     -7788.1221      572          
   1299000   306.80337     -7790.0801      572          
   1300000   285.47466     -7793.7188      572          
   1301000   305.54349     -7789.3722      572          
   1302000   289.71032     -7792.9194      572          
   1303000   313.01343     -7788.0174      572          
   1304000   306.96401     -7788.402       572          
   1305000   289.4017      -7797.5663      572          
   1306000   338.7194      -7777.5482      572          
   1307000   309.12561     -7789.5822      572          
   1308000   277.5146      -7799.4892      572          
   1309000   283.32707     -7789.6983      572          
   1310000   282.33036     -7792.8749      572          
   1311000   265.97161     -7797.1122      572          
   1312000   297.611       -7795.7626      572          
   1313000   311.2605      -7788.6392      572          
   1314000   328.41088     -7782.3863      572          
   1315000   321.91976     -7784.9062      572          
   1316000   315.00822     -7790.1466      572          
   1317000   257.1155      -7802.988       572          
   1318000   314.90701     -7785.5371      572          
   1319000   304.28737     -7789.1013      572          
   1320000   286.83099     -7794.4558      572          
   1321000   314.77384     -7788.9461      572          
   1322000   293.14941     -7796.5017      572          
   1323000   270.3185      -7803.7876      572          
   1324000   290.35792     -7787.0559      572          
   1325000   293.87933     -7795.9708      572          
   1326000   258.68718     -7801.4376      572          
   1327000   341.9549      -7777.7488      572          
   1328000   284.07762     -7796.9624      572          
   1329000   326.65034     -7783.8251      572          
   1330000   304.82635     -7791.2597      572          
   1331000   310.05727     -7792.1051      572          
   1332000   346.04875     -7776.8474      572          
   1333000   329.3486      -7780.899       572          
   1334000   267.90302     -7799.7169      572          
   1335000   291.51557     -7790.5452      572          
   1336000   343.89901     -7782.9423      572          
   1337000   305.1689      -7788.8703      572          
   1338000   253.02602     -7798.0604      572          
   1339000   294.84532     -7787.6844      572          
   1340000   272.89011     -7800.2659      572          
   1341000   299.81122     -7792.1562      572          
   1342000   317.28178     -7787.2907      572          
   1343000   302.6949      -7789.9812      572          
   1344000   345.04463     -7775.1068      572          
   1345000   278.60896     -7795.7837      572          
   1346000   324.69223     -7782.213       572          
   1347000   309.60282     -7791.7487      572          
   1348000   286.86726     -7800.6301      572          
   1349000   321.84214     -7790.1096      572          
   1350000   341.50224     -7779.4732      572          
   1351000   299.08634     -7796.6323      572          
   1352000   308.69152     -7788.8585      572          
   1353000   304.071       -7791.9498      572          
   1354000   275.33267     -7799.6569      572          
   1355000   297.70228     -7787.9792      572          
   1356000   290.13697     -7791.6742      572          
   1357000   293.20298     -7790.7788      572          
   1358000   326.34764     -7782.2231      572          
   1359000   273.32998     -7796.601       572          
   1360000   329.13693     -7783.2671      572          
   1361000   279.26363     -7797.798       572          
   1362000   276.91827     -7804.3069      572          
   1363000   310.4693      -7790.0182      572          
   1364000   339.58862     -7779.0471      572          
   1365000   304.05888     -7788.2881      572          
   1366000   259.71003     -7801.7977      572          
   1367000   311.55088     -7789.1084      572          
   1368000   275.93203     -7799.3029      572          
   1369000   287.69093     -7791.2281      572          
   1370000   330.4746      -7781.0486      572          
   1371000   279.32769     -7793.7588      572          
   1372000   347.48766     -7783.0457      572          
   1373000   257.68123     -7805.8799      572          
   1374000   325.2217      -7786.7785      572          
   1375000   285.40295     -7801.0653      572          
   1376000   329.22102     -7780.9072      572          
   1377000   287.65565     -7791.8098      572          
   1378000   349.42971     -7777.6896      572          
   1379000   245.78601     -7807.916       572          
   1380000   310.92901     -7790.5888      572          
   1381000   286.36372     -7791.6177      572          
   1382000   313.11378     -7785.0817      572          
   1383000   278.45531     -7799.1998      572          
   1384000   310.92317     -7790.0107      572          
   1385000   375.8018      -7773.304       572          
   1386000   299.1769      -7787.9447      572          
   1387000   287.88765     -7790.4889      572          
   1388000   241.72238     -7807.5648      572          
   1389000   301.54211     -7788.0865      572          
   1390000   313.8223      -7787.2088      572          
   1391000   282.98991     -7797.5163      572          
   1392000   328.69596     -7783.2429      572          
   1393000   300.33068     -7791.2479      572          
   1394000   295.17761     -7790.3654      572          
   1395000   320.79313     -7790.1264      572          
   1396000   281.38524     -7797.077       572          
   1397000   338.67296     -7775.4686      572          
   1398000   315.86205     -7785.3611      572          
   1399000   308.95088     -7792.1965      572          
   1400000   324.58003     -7788.5693      572          
   1401000   323.63847     -7786.2424      572          
   1402000   299.89086     -7795.2218      572          
   1403000   279.93847     -7798.8405      572          
   1404000   330.72138     -7777.9022      572          
   1405000   306.34057     -7786.5274      572          
   1406000   354.36416     -7777.393       572          
   1407000   321.30433     -7786.8884      572          
   1408000   300.78142     -7792.2811      572          
   1409000   323.21769     -7780.5852      572          
   1410000   301.57344     -7787.4584      572          
   1411000   288.88976     -7797.5566      572          
   1412000   300.33417     -7788.9992      572          
   1413000   312.18168     -7791.668       572          
   1414000   311.2256      -7788.1659      572          
   1415000   261.19685     -7798.4786      572          
   1416000   301.98467     -7789.9909      572          
   1417000   274.35552     -7798.456       572          
   1418000   280.30094     -7798.8798      572          
   1419000   300.63855     -7786.9044      572          
   1420000   277.93798     -7797.2143      572          
   1421000   306.81306     -7785.8341      572          
   1422000   277.27447     -7796.8898      572          
   1423000   281.19561     -7796.9911      572          
   1424000   315.13312     -7786.8321      572          
   1425000   339.31793     -7781.5612      572          
   1426000   316.52865     -7790.3059      572          
   1427000   303.2931      -7795.3924      572          
   1428000   335.72243     -7776.5153      572          
   1429000   285.93505     -7797.087       572          
   1430000   351.32452     -7783.2284      572          
   1431000   289.48398     -7791.7444      572          
   1432000   333.8357      -7780.19        572          
   1433000   299.5184      -7791.061       572          
   1434000   323.63126     -7785.004       572          
   1435000   298.78267     -7794.3262      572          
   1436000   321.39529     -7783.1334      572          
   1437000   305.25061     -7791.484       572          
   1438000   295.41572     -7791.3145      572          
   1439000   314.46141     -7783.9789      572          
   1440000   307.69672     -7792.9057      572          
   1441000   306.22769     -7787.5284      572          
   1442000   296.33077     -7791.2679      572          
   1443000   315.41277     -7782.9756      572          
   1444000   308.47082     -7785.6148      572          
   1445000   334.84167     -7782.8029      572          
   1446000   331.89476     -7778.3245      572          
   1447000   339.9793      -7780.1596      572          
   1448000   297.6468      -7790.547       572          
   1449000   312.8937      -7787.99        572          
   1450000   327.64358     -7782.7098      572          
   1451000   310.83577     -7787.2127      572          
   1452000   324.97039     -7787.5992      572          
   1453000   269.35344     -7801.7564      572          
   1454000   344.81809     -7780.7959      572          
   1455000   320.79648     -7788.279       572          
   1456000   312.44109     -7787.0188      572          
   1457000   297.90694     -7794.4654      572          
   1458000   290.39254     -7796.452       572          
   1459000   315.13739     -7788.2637      572          
   1460000   295.02978     -7792.6721      572          
   1461000   333.45427     -7787.6194      572          
   1462000   325.96904     -7785.0476      572          
   1463000   324.01056     -7786.001       572          
   1464000   313.0304      -7788.3768      572          
   1465000   311.64878     -7784.6928      572          
   1466000   302.22043     -7792.5609      572          
   1467000   324.19309     -7783.3406      572          
   1468000   262.13351     -7801.2347      572          
   1469000   300.42149     -7793.1893      572          
   1470000   312.17508     -7786.4536      572          
   1471000   315.71132     -7786.5167      572          
   1472000   295.68225     -7789.2122      572          
   1473000   286.26538     -7798.2228      572          
   1474000   311.13062     -7785.2083      572          
   1475000   310.83808     -7783.9627      572          
   1476000   316.96072     -7782.3869      572          
   1477000   286.95082     -7794.0701      572          
   1478000   240.34597     -7810.9968      572          
   1479000   314.42165     -7788.0842      572          
   1480000   300.56341     -7789.0117      572          
   1481000   321.09508     -7782.3769      572          
   1482000   284.08183     -7793.2448      572          
   1483000   348.49913     -7778.035       572          
   1484000   291.25492     -7796.2521      572          
   1485000   339.76789     -7778.7689      572          
   1486000   297.96169     -7795.4578      572          
   1487000   288.45411     -7794.0253      572          
   1488000   270.65728     -7799.2506      572          
   1489000   326.41407     -7788.0943      572          
   1490000   308.01071     -7790.6806      572          
   1491000   281.08523     -7800.3246      572          
   1492000   283.0963      -7793.1919      572          
   1493000   290.05948     -7789.1031      572          
   1494000   335.65245     -7782.6721      572          
   1495000   282.16334     -7799.8443      572          
   1496000   275.78878     -7798.0381      572          
   1497000   306.71541     -7785.441       572          
   1498000   305.19879     -7788.539       572          
   1499000   287.16898     -7796.3866      572          
   1500000   318.37883     -7787.6377      572          
   1501000   315.42685     -7786.6572      572          
   1502000   289.05851     -7792.7189      572          
   1503000   315.7708      -7788.917       572          
   1504000   294.06917     -7795.2112      572          
   1505000   299.98063     -7790.608       572          
   1506000   286.00857     -7795.5448      572          
   1507000   276.72485     -7795.2504      572          
   1508000   299.02642     -7790.494       572          
   1509000   295.11572     -7792.0409      572          
   1510000   315.97742     -7787.2908      572          
   1511000   321.46381     -7786.905       572          
   1512000   240.48624     -7808.8596      572          
   1513000   344.06193     -7780.5134      572          
   1514000   293.68627     -7792.4277      572          
   1515000   292.10113     -7794.2812      572          
   1516000   267.63144     -7802.544       572          
   1517000   307.32116     -7785.6106      572          
   1518000   287.58402     -7795.0153      572          
   1519000   292.62469     -7791.9613      572          
   1520000   297.9528      -7791.4724      572          
   1521000   321.6501      -7783.869       572          
   1522000   285.24246     -7794.2236      572          
   1523000   349.54352     -7779.5428      572          
   1524000   294.25949     -7791.0008      572          
   1525000   300.19308     -7792.0286      572          
   1526000   286.44354     -7796.1023      572          
   1527000   277.24021     -7796.6103      572          
   1528000   310.73518     -7786.5278      572          
   1529000   288.39154     -7793.2443      572          
   1530000   289.79568     -7795.1271      572          
   1531000   363.94589     -7773.321       572          
   1532000   285.09862     -7794.785       572          
   1533000   311.54848     -7787.1886      572          
   1534000   321.66221     -7788.8493      572          
   1535000   235.63119     -7806.4877      572          
   1536000   340.34298     -7778.624       572          
   1537000   255.26864     -7802.0517      572          
   1538000   358.56935     -7774.7182      572          
   1539000   289.35019     -7795.0904      572          
   1540000   261.68357     -7801.7765      572          
   1541000   320.98037     -7784.7758      572          
   1542000   313.45462     -7787.6938      572          
   1543000   303.27976     -7789.709       572          
   1544000   295.06877     -7796.6239      572          
   1545000   333.07012     -7776.557       572          
   1546000   308.98978     -7785.0807      572          
   1547000   343.7965      -7777.2019      572          
   1548000   278.24327     -7797.2255      572          
   1549000   310.5666      -7787.3657      572          
   1550000   293.18389     -7790.1613      572          
   1551000   321.4697      -7785.4365      572          
   1552000   330.18905     -7783.9142      572          
   1553000   317.30503     -7787.5165      572          
   1554000   276.87628     -7797.2364      572          
   1555000   309.78483     -7789.4602      572          
   1556000   307.586       -7790.0172      572          
   1557000   302.36608     -7787.7131      572          
   1558000   352.61099     -7772.2334      572          
   1559000   286.78491     -7794.5705      572          
   1560000   297.58431     -7790.71        572          
   1561000   364.77879     -7778.1339      572          
   1562000   284.18754     -7795.9351      572          
   1563000   284.96706     -7795.6546      572          
   1564000   330.19641     -7780.6773      572          
   1565000   341.08812     -7781.8075      572          
   1566000   297.99493     -7789.9191      572          
   1567000   297.24986     -7790.4605      572          
   1568000   284.24258     -7799.3382      572          
   1569000   301.67722     -7789.4841      572          
   1570000   249.33987     -7805.7057      572          
   1571000   296.59642     -7787.1337      572          
   1572000   303.24149     -7787.2393      572          
   1573000   276.57172     -7797.0465      572          
   1574000   340.26156     -7787.1515      572          
   1575000   311.86608     -7791.5164      572          
   1576000   309.75486     -7789.6354      572          
   1577000   308.90268     -7788.0602      572          
   1578000   319.77717     -7784.4817      572          
   1579000   303.4079      -7790.7901      572          
   1580000   339.51938     -7778.0451      572          
   1581000   292.03538     -7795.9207      572          
   1582000   317.85089     -7782.3422      572          
   1583000   312.79713     -7787.1735      572          
   1584000   329.4461      -7782.8179      572          
   1585000   344.72715     -7783.1638      572          
   1586000   313.11897     -7788.3615      572          
   1587000   309.56541     -7790.3158      572          
   1588000   258.64325     -7807.1392      572          
   1589000   320.80653     -7781.5744      572          
   1590000   297.68244     -7792.8205      572          
   1591000   299.34582     -7790.2992      572          
   1592000   326.8488      -7785.9176      572          
   1593000   314.10497     -7788.3538      572          
   1594000   315.38118     -7784.117       572          
   1595000   297.37418     -7792.0531      572          
   1596000   276.05727     -7799.1981      572          
   1597000   332.46047     -7783.0775      572          
   1598000   310.31583     -7785.482       572          
   1599000   329.75066     -7786.4995      572          
   1600000   262.46395     -7801.4426      572          
   1601000   301.12987     -7792.5416      572          
   1602000   343.81101     -7778.801       572          
   1603000   274.88838     -7802.1221      572          
   1604000   281.06967     -7795.4398      572          
   1605000   308.20991     -7787.6123      572          
   1606000   284.3004      -7792.5586      572          
   1607000   325.066       -7784.2578      572          
   1608000   278.26072     -7797.991       572          
   1609000   307.17202     -7795.9972      573          
   1610000   337.79543     -7792.5004      573          
   1611000   273.55924     -7806.7396      573          
   1612000   309.5097      -7800.1516      573          
   1613000   286.55403     -7806.6134      573          
   1614000   334.1523      -7791.9991      573          
   1615000   279.70737     -7807.8246      573          
   1616000   287.57286     -7804.2053      573          
   1617000   297.03773     -7805.9173      573          
   1618000   288.2747      -7807.3123      573          
   1619000   259.58982     -7814.0863      573          
   1620000   290.33949     -7809.1806      573          
   1621000   319.12275     -7796.6637      573          
   1622000   289.57874     -7806.9953      573          
   1623000   276.23332     -7810.4424      573          
   1624000   315.00114     -7799.2784      573          
   1625000   307.49132     -7803.5917      573          
   1626000   311.43746     -7799.1107      573          
   1627000   306.78985     -7801.4273      573          
   1628000   317.52119     -7799.0769      573          
   1629000   331.92647     -7797.0394      573          
   1630000   246.95051     -7820.2977      573          
   1631000   312.67415     -7799.9048      573          
   1632000   312.44074     -7794.144       573          
   1633000   320.097       -7796.0363      573          
   1634000   331.05735     -7790.694       573          
   1635000   298.14395     -7805.9273      573          
   1636000   298.01128     -7802.1339      573          
   1637000   346.21882     -7790.9026      573          
   1638000   278.58478     -7807.3001      573          
   1639000   290.5579      -7807.5049      573          
   1640000   265.66982     -7813.3797      573          
   1641000   370.71003     -7781.4094      573          
   1642000   299.49927     -7800.7329      573          
   1643000   352.36736     -7789.6794      573          
   1644000   302.87731     -7804.84        573          
   1645000   267.05203     -7813.4107      573          
   1646000   275.86375     -7811.0492      573          
   1647000   306.82792     -7797.8165      573          
   1648000   310.89508     -7801.6566      573          
   1649000   302.99081     -7801.4338      573          
   1650000   315.06519     -7797.4182      573          
   1651000   335.99468     -7791.3275      573          
   1652000   312.56862     -7799.471       573          
   1653000   297.85358     -7801.4794      573          
   1654000   329.81569     -7797.1311      573          
   1655000   258.68427     -7818.0641      573          
   1656000   353.43157     -7783.1118      573          
   1657000   293.75589     -7804.7749      573          
   1658000   313.94713     -7798.2308      573          
   1659000   272.76866     -7810.1844      573          
   1660000   307.54713     -7798.9778      573          
   1661000   316.69142     -7796.838       573          
   1662000   311.83327     -7798.0986      573          
   1663000   302.38466     -7803.495       573          
   1664000   268.83627     -7813.0324      573          
   1665000   315.30745     -7796.2893      573          
   1666000   370.73025     -7778.2334      573          
   1667000   305.26492     -7802.362       573          
   1668000   274.07452     -7807.5268      573          
   1669000   317.01132     -7800.6043      573          
   1670000   309.2926      -7803.8793      573          
   1671000   250.60323     -7817.6051      573          
   1672000   315.80847     -7794.3662      573          
   1673000   281.904       -7806.2232      573          
   1674000   335.96008     -7792.1971      573          
   1675000   279.24678     -7810.3989      573          
   1676000   313.36995     -7795.2953      573          
   1677000   303.16907     -7800.968       573          
   1678000   317.94447     -7797.3702      573          
   1679000   269.21729     -7810.5192      573          
   1680000   305.28706     -7803.0998      573          
   1681000   290.25893     -7804.5434      573          
   1682000   320.82529     -7798.324       573          
   1683000   313.74898     -7798.4814      573          
   1684000   298.8464      -7803.5124      573          
   1685000   304.6771      -7804.7884      573          
   1686000   322.68019     -7798.3341      573          
   1687000   300.45633     -7802.3294      573          
   1688000   302.54658     -7801.3431      573          
   1689000   291.65291     -7807.5253      573          
   1690000   316.16383     -7795.0356      573          
   1691000   279.36969     -7805.8722      573          
   1692000   331.89502     -7795.9691      573          
   1693000   281.82792     -7810.9178      573          
   1694000   307.02626     -7804.2567      573          
   1695000   355.45365     -7786.9046      573          
   1696000   291.3938      -7802.3347      573          
   1697000   389.07142     -7777.6293      573          
   1698000   299.59857     -7801.1162      573          
   1699000   288.11511     -7806.4924      573          
   1700000   309.1431      -7802.4644      573          
   1701000   271.56145     -7814.4821      573          
   1702000   305.59458     -7799.4384      573          
   1703000   321.7462      -7797.2819      573          
   1704000   302.32964     -7806.9964      573          
   1705000   306.02256     -7799.8212      573          
   1706000   313.25693     -7792.5997      573          
   1707000   243.9885      -7818.9197      573          
   1708000   317.09913     -7801.9744      573          
   1709000   310.50005     -7801.5884      573          
   1710000   284.48402     -7810.896       573          
   1711000   286.20788     -7803.1499      573          
   1712000   321.44731     -7800.3901      573          
   1713000   312.6041      -7797.6303      573          
   1714000   299.35061     -7803.7054      573          
   1715000   301.95857     -7804.9125      573          
   1716000   321.68203     -7799.6915      573          
   1717000   324.18153     -7798.5665      573          
   1718000   344.36148     -7789.9491      573          
   1719000   283.81407     -7808.6117      573          
   1720000   317.05973     -7794.979       573          
   1721000   287.03337     -7810.3044      573          
   1722000   334.18588     -7794.0035      573          
   1723000   299.40094     -7801.5713      573          
   1724000   297.20266     -7805.9481      573          
   1725000   359.92244     -7785.6874      573          
   1726000   283.50522     -7807.5477      573          
   1727000   286.95008     -7805.9241      573          
   1728000   271.89038     -7810.0528      573          
   1729000   271.44694     -7807.8805      573          
   1730000   315.50478     -7799.454       573          
   1731000   294.15006     -7809.2011      573          
   1732000   315.32869     -7799.3553      573          
   1733000   348.94167     -7790.1417      573          
   1734000   270.29451     -7810.8216      573          
   1735000   313.62439     -7799.1309      573          
   1736000   289.0953      -7805.4396      573          
   1737000   291.925       -7802.0624      573          
   1738000   256.23331     -7817.9368      573          
   1739000   304.22617     -7806.319       573          
   1740000   296.36894     -7805.5263      573          
   1741000   301.7691      -7800.0094      573          
   1742000   286.15248     -7804.7806      573          
   1743000   336.65486     -7793.7328      573          
   1744000   333.55172     -7793.8345      573          
   1745000   307.81052     -7799.2387      573          
   1746000   301.59116     -7802.8327      573          
   1747000   291.44063     -7803.257       573          
   1748000   318.0024      -7797.254       573          
   1749000   295.55201     -7805.6345      573          
   1750000   315.07377     -7796.9206      573          
   1751000   281.11656     -7810.6581      573          
   1752000   277.28784     -7812.249       573          
   1753000   347.03248     -7787.3012      573          
   1754000   293.87783     -7802.3256      573          
   1755000   327.02571     -7798.3381      573          
   1756000   276.50546     -7813.362       573          
   1757000   327.71515     -7797.3626      573          
   1758000   279.9327      -7806.5396      573          
   1759000   281.64474     -7809.5339      573          
   1760000   321.722       -7798.5737      573          
   1761000   342.12976     -7795.4693      573          
   1762000   341.56978     -7796.6233      573          
   1763000   283.16935     -7808.1943      573          
   1764000   312.21324     -7795.5811      573          
   1765000   246.00394     -7820.7724      573          
   1766000   308.68898     -7804.5466      573          
   1767000   268.48197     -7812.8585      573          
   1768000   312.84132     -7795.7959      573          
   1769000   321.89387     -7796.7397      573          
   1770000   281.59828     -7811.1956      573          
   1771000   370.42025     -7787.3779      573          
   1772000   292.74436     -7806.8518      573          
   1773000   292.66174     -7802.8528      573          
   1774000   310.60487     -7795.9317      573          
   1775000   285.65551     -7804.7806      573          
   1776000   296.25691     -7801.2945      573          
   1777000   260.88162     -7814.9691      573          
   1778000   304.48019     -7802.9213      573          
   1779000   284.51709     -7805.8781      573          
   1780000   274.76245     -7810.86        573          
   1781000   310.62963     -7801.5277      573          
   1782000   301.60096     -7802.4152      573          
   1783000   297.9295      -7804.7916      573          
   1784000   338.53068     -7795.6303      573          
   1785000   278.74202     -7808.4818      573          
   1786000   354.5223      -7794.024       573          
   1787000   298.64153     -7807.627       573          
   1788000   276.45476     -7804.505       573          
   1789000   293.61081     -7804.7352      573          
   1790000   303.76004     -7800.4672      573          
   1791000   265.74288     -7812.5181      573          
   1792000   303.71431     -7802.3234      573          
   1793000   363.6409      -7790.5275      573          
   1794000   314.22728     -7801.7012      573          
   1795000   308.84996     -7800.0407      573          
   1796000   282.2076      -7807.877       573          
   1797000   314.53937     -7800.8278      573          
   1798000   314.6507      -7795.1778      573          
   1799000   334.2952      -7796.635       573          
   1800000   308.61471     -7802.6634      573          
   1801000   342.33514     -7794.2309      573          
   1802000   286.40441     -7808.8985      573          
   1803000   328.88199     -7792.3611      573          
   1804000   323.49663     -7795.6201      573          
   1805000   289.15124     -7810.8157      574          
   1806000   310.84327     -7808.8742      574          
   1807000   309.61968     -7810.7802      574          
   1808000   329.21649     -7803.017       574          
   1809000   262.94964     -7824.4318      574          
   1810000   296.91672     -7815.0751      574          
   1811000   324.1955      -7801.7815      574          
   1812000   368.38591     -7790.0726      574          
   1813000   288.02407     -7815.0422      574          
   1814000   356.02136     -7801.4544      574          
   1815000   298.6755      -7813.9699      574          
   1816000   292.90372     -7811.1239      574          
   1817000   285.62957     -7818.2332      574          
   1818000   337.0444      -7798.8666      574          
   1819000   295.54994     -7817.6279      574          
   1820000   311.94013     -7812.5489      574          
   1821000   330.62191     -7799.4079      574          
   1822000   360.02513     -7793.3217      574          
   1823000   280.98037     -7818.0604      574          
   1824000   303.42977     -7808.4584      574          
   1825000   288.17189     -7818.8172      574          
   1826000   304.11479     -7809.9435      574          
   1827000   312.63541     -7811.9886      574          
   1828000   291.21173     -7819.614       574          
   1829000   328.19065     -7802.7576      574          
   1830000   295.91634     -7813.2477      574          
   1831000   274.15943     -7821.0396      574          
   1832000   308.99741     -7811.0078      574          
   1833000   307.13418     -7809.1786      574          
   1834000   343.03106     -7806.5581      574          
   1835000   329.92342     -7808.6043      574          
   1836000   348.54962     -7801.5         574          
   1837000   280.7877      -7820.5223      574          
   1838000   330.51422     -7803.755       574          
   1839000   293.68743     -7815.3453      574          
   1840000   297.40993     -7822.8519      575          
   1841000   349.13375     -7811.5841      575          
   1842000   252.4636      -7838.6759      575          
   1843000   354.64326     -7808.8997      575          
   1844000   283.47858     -7833.6162      575          
   1845000   386.88267     -7799.587       575          
   1846000   331.62086     -7820.3073      575          
   1847000   293.01115     -7832.744       575          
   1848000   336.46523     -7817.2716      575          
   1849000   309.51558     -7821.3125      575          
   1850000   290.65144     -7826.546       575          
   1851000   302.04911     -7828.3243      575          
   1852000   298.82742     -7830.3217      575          
   1853000   315.79542     -7823.9251      575          
   1854000   276.93207     -7830.3051      575          
   1855000   330.82193     -7818.7874      575          
   1856000   283.4696      -7834.6006      575          
   1857000   296.71375     -7830.9025      575          
   1858000   359.62923     -7808.1403      575          
   1859000   296.47695     -7826.4248      575          
   1860000   313.78779     -7825.8265      575          
   1861000   287.50268     -7832.5096      575          
   1862000   301.60955     -7826.4626      575          
   1863000   272.95943     -7831.0787      575          
   1864000   316.26584     -7825.0618      575          
   1865000   308.49761     -7825.5349      575          
   1866000   344.55101     -7816.3457      575          
   1867000   299.62597     -7826.0578      575          
   1868000   288.68153     -7823.1384      575          
   1869000   328.07844     -7820.4478      575          
   1870000   325.88056     -7823.2235      575          
   1871000   295.25291     -7829.9637      575          
   1872000   316.13799     -7822.6163      575          
   1873000   312.10164     -7822.2953      575          
   1874000   280.25527     -7830.0927      575          
   1875000   313.11273     -7823.6911      575          
   1876000   253.74991     -7837.6606      575          
   1877000   337.26719     -7833.5935      576          
   1878000   320.53266     -7837.4375      576          
   1879000   356.71387     -7829.633       576          
   1880000   285.72587     -7844.2522      576          
   1881000   281.70429     -7846.2447      576          
   1882000   290.4559      -7842.0028      576          
   1883000   306.21154     -7840.5049      576          
   1884000   314.9611      -7833.5719      576          
   1885000   301.94696     -7839.6372      576          
   1886000   331.73047     -7834.8382      576          
   1887000   307.39762     -7838.2246      576          
   1888000   290.01185     -7845.3675      576          
   1889000   332.42459     -7828.6277      576          
   1890000   270.50033     -7847.5547      576          
   1891000   317.34481     -7835.5781      576          
   1892000   268.1874      -7846.6047      576          
   1893000   291.39288     -7843.1284      576          
   1894000   293.88762     -7844.9205      576          
   1895000   314.70849     -7837.3424      576          
   1896000   337.08356     -7828.9822      576          
   1897000   272.47206     -7848.3291      576          
   1898000   281.50849     -7845.5687      576          
   1899000   295.20701     -7848.0363      576          
   1900000   325.32407     -7836.09        576          
   1901000   318.17748     -7836.4943      576          
   1902000   242.09287     -7854.732       576          
   1903000   313.04439     -7838.7773      576          
   1904000   265.88386     -7850.6771      576          
   1905000   334.56484     -7827.0454      576          
   1906000   297.99767     -7836.6991      576          
   1907000   342.23789     -7830.3594      576          
   1908000   333.40599     -7833.2983      576          
   1909000   294.22096     -7843.3008      576          
   1910000   302.42337     -7841.5296      576          
   1911000   340.83443     -7831.5828      576          
   1912000   311.42944     -7839.0334      576          
   1913000   355.18608     -7827.8857      576          
   1914000   322.5284      -7835.7248      576          
   1915000   312.04723     -7842.2818      576          
   1916000   310.20344     -7839.3494      576          
   1917000   284.61607     -7845.6031      576          
   1918000   322.35497     -7839.6427      576          
   1919000   305.00026     -7838.5097      576          
   1920000   261.49372     -7853.133       576          
   1921000   308.14427     -7836.7061      576          
   1922000   253.636       -7853.521       576          
   1923000   328.54948     -7831.7445      576          
   1924000   269.56544     -7847.5692      576          
   1925000   304.72235     -7844.773       576          
   1926000   293.13713     -7843.6355      576          
   1927000   335.64294     -7829.2913      576          
   1928000   312.91683     -7834.7328      576          
   1929000   295.7709      -7842.6227      576          
   1930000   346.17769     -7827.2384      576          
   1931000   276.04102     -7849.0122      576          
   1932000   284.39        -7845.9374      576          
   1933000   307.11188     -7838.0779      576          
   1934000   290.85659     -7839.4446      576          
   1935000   309.35156     -7833.0926      576          
   1936000   283.68952     -7842.5106      576          
   1937000   316.46009     -7838.3186      576          
   1938000   268.69929     -7851.0367      576          
   1939000   294.48117     -7844.2549      576          
   1940000   303.58318     -7842.9122      576          
   1941000   336.02675     -7831.6276      576          
   1942000   324.28927     -7832.6211      576          
   1943000   266.97471     -7849.7588      576          
   1944000   298.31552     -7841.8683      576          
   1945000   327.87308     -7828.7662      576          
   1946000   334.09375     -7830.6297      576          
   1947000   300.71764     -7841.579       576          
   1948000   296.89185     -7846.8436      576          
   1949000   332.25397     -7836.0577      576          
   1950000   266.8721      -7854.2819      576          
   1951000   333.26825     -7831.0745      576          
   1952000   263.3145      -7852.2096      576          
   1953000   314.8501      -7841.9338      576          
   1954000   265.41402     -7850.9993      576          
   1955000   303.73208     -7840.731       576          
   1956000   309.55132     -7835.579       576          
   1957000   294.47773     -7838.0048      576          
   1958000   302.25164     -7840.9158      576          
   1959000   290.84439     -7839.54        576          
   1960000   279.70341     -7849.5019      576          
   1961000   374.54149     -7821.2118      576          
   1962000   324.17011     -7831.3186      576          
   1963000   254.22333     -7858.187       576          
   1964000   345.28885     -7831.9991      576          
   1965000   316.77926     -7836.698       576          
   1966000   325.20623     -7832.8572      576          
   1967000   323.91808     -7833.0579      576          
   1968000   338.86695     -7836.332       576          
   1969000   284.63098     -7845.5182      576          
   1970000   309.98543     -7837.7897      576          
   1971000   296.26181     -7844.101       576          
   1972000   321.00726     -7837.2409      576          
   1973000   312.55017     -7835.8371      576          
   1974000   281.51246     -7841.5461      576          
   1975000   291.34839     -7847.4345      576          
   1976000   312.03143     -7841.2082      576          
   1977000   320.28784     -7834.3052      576          
   1978000   344.85369     -7829.7037      576          
   1979000   289.73752     -7845.4542      576          
   1980000   286.75278     -7849.2052      576          
   1981000   308.29539     -7837.4844      576          
   1982000   314.90834     -7837.4193      576          
   1983000   312.41171     -7839.0091      576          
   1984000   289.85151     -7844.3804      576          
   1985000   334.60506     -7836.1481      576          
   1986000   319.43737     -7836.1612      576          
   1987000   279.47183     -7849.3303      576          
   1988000   292.61268     -7846.6475      576          
   1989000   290.2062      -7845.1325      576          
   1990000   274.86565     -7850.1772      576          
   1991000   327.73167     -7833.49        576          
   1992000   305.49768     -7837.7381      576          
   1993000   300.96759     -7845.3649      576          
   1994000   254.09743     -7855.4837      576          
   1995000   296.65082     -7844.3657      576          
   1996000   305.55951     -7837.8384      576          
   1997000   281.33466     -7849.9721      576          
   1998000   332.32098     -7840.7864      576          
   1999000   348.16853     -7830.5782      576          
   2000000   310.49516     -7840.4035      576          
   2001000   275.97203     -7850.1797      576          
   2002000   335.21806     -7830.8858      576          
   2003000   300.0544      -7844.3588      576          
   2004000   316.16331     -7838.9898      576          
   2005000   267.29572     -7849.927       576          
   2006000   324.24038     -7839.8003      576          
   2007000   329.21195     -7834.0471      576          
   2008000   344.46997     -7829.3461      576          
   2009000   261.8156      -7854.3073      576          
   2010000   336.99559     -7835.4031      576          
   2011000   296.63398     -7844.9073      576          
   2012000   330.56578     -7833.9056      576          
   2013000   314.9692      -7838.1046      576          
   2014000   326.63747     -7839.3255      576          
   2015000   307.17832     -7843.9355      576          
   2016000   302.1376      -7842.2818      576          
   2017000   271.81446     -7846.3393      576          
   2018000   338.92588     -7835.2445      576          
   2019000   284.27078     -7851.3188      576          
   2020000   300.78617     -7842.3777      576          
   2021000   314.45504     -7842.5532      576          
   2022000   300.81402     -7847.8194      576          
   2023000   355.02822     -7823.8145      576          
   2024000   319.6913      -7835.6948      576          
   2025000   309.82677     -7839.0951      576          
   2026000   300.80814     -7847.4977      576          
   2027000   332.91857     -7839.5878      576          
   2028000   275.83926     -7852.3001      576          
   2029000   389.3802      -7819.9625      576          
   2030000   287.52691     -7846.2624      576          
   2031000   298.18792     -7846.0173      576          
   2032000   385.31231     -7822.046       576          
   2033000   287.80293     -7847.9027      576          
   2034000   326.33461     -7837.3766      576          
   2035000   309.15948     -7841.6688      576          
   2036000   316.50385     -7839.4892      576          
   2037000   311.3673      -7839.9267      576          
   2038000   302.1985      -7844.3522      576          
   2039000   294.60149     -7849.6442      576          
   2040000   281.23135     -7847.0629      576          
   2041000   314.06608     -7841.1607      576          
   2042000   267.12255     -7855.4181      576          
   2043000   286.66185     -7846.9274      576          
   2044000   337.32279     -7832.7342      576          
   2045000   283.18067     -7852.0512      576          
   2046000   286.55509     -7849.6431      576          
   2047000   250.5599      -7858.7013      576          
   2048000   324.303       -7835.0576      576          
   2049000   328.55348     -7837.236       576          
   2050000   304.12098     -7845.3922      576          
   2051000   276.0526      -7853.0887      576          
   2052000   333.71374     -7833.1262      576          
   2053000   276.06603     -7852.1742      576          
   2054000   296.83675     -7845.4691      576          
   2055000   289.70775     -7848.7919      576          
   2056000   293.45078     -7848.5098      576          
   2057000   338.21744     -7835.0077      576          
   2058000   319.33204     -7836.4128      576          
   2059000   301.62182     -7845.1746      576          
   2060000   290.57282     -7847.0485      576          
   2061000   298.3954      -7845.0204      576          
   2062000   325.52384     -7835.3904      576          
   2063000   307.51631     -7843.0546      576          
   2064000   316.88363     -7837.4187      576          
   2065000   309.78519     -7842.2371      576          
   2066000   291.95538     -7843.2191      576          
   2067000   280.02161     -7851.5173      576          
   2068000   316.59672     -7838.8753      576          
   2069000   342.731       -7833.0238      576          
   2070000   314.02475     -7838.0139      576          
   2071000   309.58712     -7844.4538      576          
   2072000   356.7625      -7828.0306      576          
   2073000   296.39429     -7848.0657      576          
   2074000   283.24045     -7849.8607      576          
   2075000   366.53509     -7826.6123      576          
   2076000   283.97844     -7847.142       576          
   2077000   300.2961      -7842.8147      576          
   2078000   346.81762     -7832.2054      576          
   2079000   267.33414     -7856.9952      576          
   2080000   301.4654      -7842.4283      576          
   2081000   308.94857     -7839.7959      576          
   2082000   266.14008     -7855.7474      576          
   2083000   317.16433     -7838.2675      576          
   2084000   341.06328     -7834.2444      576          
   2085000   293.49363     -7847.6618      576          
   2086000   341.44499     -7834.5975      576          
   2087000   310.33965     -7838.0712      576          
   2088000   309.85754     -7840.8425      576          
   2089000   326.66473     -7836.9069      576          
   2090000   269.78213     -7855.8494      576          
   2091000   289.01965     -7844.3916      576          
   2092000   315.88116     -7840.8962      576          
   2093000   292.39659     -7844.8007      576          
   2094000   276.13647     -7851.2255      576          
   2095000   301.83122     -7842.7463      576          
   2096000   298.00719     -7846.4581      576          
   2097000   302.37912     -7841.9721      576          
   2098000   293.47524     -7842.8876      576          
   2099000   291.81393     -7849.1368      576          
   2100000   299.74659     -7846.5241      576          
   2101000   282.19921     -7850.2694      576          
   2102000   295.25212     -7840.0502      576          
   2103000   326.82081     -7836.7905      576          
   2104000   254.52558     -7860.4336      576          
   2105000   308.06139     -7840.0641      576          
   2106000   293.15572     -7842.8829      576          
   2107000   303.97906     -7842.6696      576          
   2108000   328.0477      -7838.3916      576          
   2109000   278.18783     -7851.1306      576          
   2110000   301.37737     -7846.9604      576          
   2111000   276.2874      -7851.5647      576          
   2112000   306.82317     -7840.3593      576          
   2113000   342.3945      -7828.9895      576          
   2114000   299.64206     -7844.4352      576          
   2115000   299.17145     -7850.44        576          
   2116000   309.1714      -7842.4468      576          
   2117000   354.62219     -7824.7038      576          
   2118000   297.7184      -7844.1813      576          
   2119000   319.34982     -7837.8766      576          
   2120000   321.82524     -7838.9088      576          
   2121000   262.04197     -7854.7655      576          
   2122000   339.07724     -7838.6244      576          
   2123000   292.16236     -7842.6734      576          
   2124000   315.51373     -7838.3659      576          
   2125000   310.17109     -7843.0733      576          
   2126000   301.08148     -7843.1685      576          
   2127000   287.55622     -7846.2932      576          
   2128000   268.65422     -7856.3797      576          
   2129000   272.79008     -7852.1401      576          
   2130000   284.27637     -7850.3695      576          
   2131000   310.93153     -7842.0658      576          
   2132000   357.52798     -7829.8036      576          
   2133000   306.53219     -7845.7397      576          
   2134000   284.93698     -7851.38        576          
   2135000   303.56157     -7842.3868      576          
   2136000   302.0635      -7839.3509      576          
   2137000   302.26959     -7844.2312      576          
   2138000   305.20848     -7841.7831      576          
   2139000   340.74657     -7830.1798      576          
   2140000   289.52883     -7845.1079      576          
   2141000   287.5036      -7847.8571      576          
   2142000   299.61813     -7851.669       576          
   2143000   327.25492     -7838.8488      576          
   2144000   295.22345     -7849.3392      576          
   2145000   293.28687     -7846.9413      576          
   2146000   300.74198     -7847.7179      576          
   2147000   315.52321     -7840.0622      576          
   2148000   315.87889     -7841.8705      576          
   2149000   330.05038     -7836.7048      576          
   2150000   298.85823     -7846.4322      576          
   2151000   297.1807      -7849.094       576          
   2152000   336.24214     -7838.7849      576          
   2153000   298.24754     -7845.1012      576          
   2154000   339.75323     -7834.8304      576          
   2155000   326.2392      -7842.7983      576          
   2156000   272.57811     -7856.2406      576          
   2157000   311.33462     -7842.977       576          
   2158000   322.99162     -7836.3141      576          
   2159000   268.1         -7856.647       576          
   2160000   314.45265     -7839.4286      576          
   2161000   335.0307      -7840.2683      576          
   2162000   316.55965     -7842.6304      576          
   2163000   322.75693     -7839.4654      576          
   2164000   280.57332     -7853.7351      576          
   2165000   273.819       -7854.5662      576          
   2166000   311.57394     -7845.2204      576          
   2167000   290.47734     -7847.6117      576          
   2168000   300.24888     -7849.2818      576          
   2169000   306.99006     -7844.7224      576          
   2170000   316.52937     -7841.3788      576          
   2171000   293.36344     -7846.0266      576          
   2172000   300.74402     -7841.8808      576          
   2173000   327.03471     -7834.7554      576          
   2174000   281.52132     -7852.5056      576          
   2175000   291.09646     -7849.6901      576          
   2176000   292.64935     -7849.0066      576          
   2177000   337.95522     -7838.242       576          
   2178000   306.76093     -7845.7933      576          
   2179000   329.25707     -7842.2121      576          
   2180000   302.79805     -7845.7404      576          
   2181000   322.01781     -7842.7661      576          
   2182000   298.63905     -7848.1413      576          
   2183000   311.55901     -7839.934       576          
   2184000   305.7934      -7845.258       576          
   2185000   335.86903     -7838.1791      576          
   2186000   284.68148     -7850.4837      576          
   2187000   372.93587     -7837.4354      577          
   2188000   298.35851     -7860.1042      577          
   2189000   305.96444     -7859.7599      577          
   2190000   385.52093     -7839.9791      577          
   2191000   320.81651     -7855.2694      577          
   2192000   313.12212     -7855.1291      577          
   2193000   278.76874     -7865.6824      577          
   2194000   353.16732     -7845.9898      577          
   2195000   269.00316     -7869.6738      577          
   2196000   309.63864     -7857.2824      577          
   2197000   300.18605     -7858.7873      577          
   2198000   345.37709     -7848.6007      577          
   2199000   285.35992     -7867.1122      577          
   2200000   300.25177     -7858.3566      577          
   2201000   285.79997     -7865.1183      577          
   2202000   297.44437     -7860.4238      577          
   2203000   318.57529     -7858.6437      577          
   2204000   298.76482     -7858.0093      577          
   2205000   358.71652     -7841.6213      577          
   2206000   271.87689     -7869.9924      577          
   2207000   312.59574     -7854.9715      577          
   2208000   260.34411     -7871.3412      577          
   2209000   314.31323     -7854.9346      577          
   2210000   321.0195      -7850.2918      577          
   2211000   318.18692     -7857.4881      577          
   2212000   331.73658     -7854.6148      577          
   2213000   309.17785     -7852.9655      577          
   2214000   244.14683     -7874.7796      577          
   2215000   285.98956     -7865.1769      577          
   2216000   253.86526     -7873.8211      577          
   2217000   351.51093     -7842.2229      577          
   2218000   321.46615     -7853.7663      577          
   2219000   312.38338     -7857.9728      577          
   2220000   361.66695     -7843.8245      577          
   2221000   295.02665     -7863.0372      577          
   2222000   316.62963     -7852.8171      577          
   2223000   292.03064     -7861.1803      577          
   2224000   287.00294     -7861.0436      577          
   2225000   299.80426     -7862.8667      577          
   2226000   294.09924     -7855.6391      577          
   2227000   322.44152     -7850.6941      577          
   2228000   258.46195     -7870.97        577          
   2229000   304.49847     -7858.5302      577          
   2230000   313.92711     -7855.476       577          
   2231000   368.8369      -7840.3283      577          
   2232000   323.49466     -7854.4971      577          
   2233000   297.00911     -7861.2525      577          
   2234000   297.96394     -7859.3641      577          
   2235000   299.02856     -7862.8815      577          
   2236000   288.28709     -7865.702       577          
   2237000   298.38983     -7861.0209      577          
   2238000   291.73804     -7864.8842      577          
   2239000   260.20929     -7873.4412      577          
   2240000   315.46612     -7858.3314      577          
   2241000   284.6624      -7862.3973      577          
   2242000   309.41174     -7858.9354      577          
   2243000   267.25443     -7873.6721      577          
   2244000   289.07691     -7863.3098      577          
   2245000   252.47484     -7874.6555      577          
   2246000   318.74236     -7853.7836      577          
   2247000   279.49153     -7869.2397      577          
   2248000   327.52283     -7850.9315      577          
   2249000   275.80599     -7869.3403      577          
   2250000   304.89363     -7860.152       577          
   2251000   290.65325     -7861.8084      577          
   2252000   312.72695     -7855.9225      577          
   2253000   288.12398     -7866.7409      577          
   2254000   309.8775      -7861.9201      577          
   2255000   327.59947     -7847.4312      577          
   2256000   323.94719     -7857.9487      577          
   2257000   305.26788     -7862.8293      577          
   2258000   295.48417     -7863.4448      577          
   2259000   246.61833     -7876.2693      577          
   2260000   326.90643     -7853.957       577          
   2261000   275.39436     -7869.5338      577          
   2262000   321.07673     -7856.7173      577          
   2263000   274.14134     -7866.4177      577          
   2264000   307.47712     -7855.9453      577          
   2265000   286.50503     -7863.6625      577          
   2266000   319.59361     -7857.6788      577          
   2267000   296.29043     -7862.6314      577          
   2268000   317.4104      -7855.037       577          
   2269000   291.76715     -7861.451       577          
   2270000   317.95002     -7859.0547      577          
   2271000   296.10392     -7866.9306      577          
   2272000   287.36866     -7864.7126      577          
   2273000   287.42631     -7865.4801      577          
   2274000   292.81989     -7859.9807      577          
   2275000   301.75384     -7859.8041      577          
   2276000   339.21214     -7855.2284      577          
   2277000   287.44724     -7867.7609      577          
   2278000   325.17119     -7851.9877      577          
   2279000   278.3956      -7866.2672      577          
   2280000   306.68847     -7860.4707      577          
   2281000   297.26477     -7866.7319      577          
   2282000   301.56844     -7864.8166      577          
   2283000   302.21419     -7861.2181      577          
   2284000   288.02731     -7865.267       577          
   2285000   270.82747     -7867.6815      577          
   2286000   288.1469      -7865.4456      577          
   2287000   336.90587     -7850.7791      577          
   2288000   297.07813     -7863.4758      577          
   2289000   335.28696     -7849.2249      577          
   2290000   323.50727     -7859.0425      577          
   2291000   297.58255     -7862.628       577          
   2292000   354.56816     -7850.9127      577          
   2293000   300.76325     -7860.4895      577          
   2294000   316.0843      -7858.1619      577          
   2295000   304.6605      -7863.935       577          
   2296000   319.13728     -7850.0244      577          
   2297000   283.43468     -7864.0261      577          
   2298000   313.63612     -7858.1078      577          
   2299000   353.17441     -7844.4694      577          
   2300000   335.00086     -7857.208       577          
   2301000   350.193       -7846.4599      577          
   2302000   347.05648     -7847.4883      577          
   2303000   281.19499     -7866.3226      577          
   2304000   283.98825     -7864.4986      577          
   2305000   311.91655     -7859.5134      577          
   2306000   268.09089     -7872.6614      577          
   2307000   310.62227     -7857.8576      577          
   2308000   283.68825     -7865.4172      577          
   2309000   275.61996     -7868.1484      577          
   2310000   335.21673     -7853.4073      577          
   2311000   323.81354     -7855.0126      577          
   2312000   299.47614     -7860.8439      577          
   2313000   343.81671     -7850.8971      577          
   2314000   287.77879     -7867.9607      577          
   2315000   339.80431     -7850.8807      577          
   2316000   284.29437     -7865.521       577          
   2317000   338.51589     -7854.0631      577          
   2318000   289.84437     -7863.4558      577          
   2319000   290.27851     -7865.927       577          
   2320000   293.53245     -7865.0708      577          
   2321000   299.30451     -7859.3115      577          
   2322000   270.73764     -7869.838       577          
   2323000   283.80713     -7867.1085      577          
   2324000   284.57572     -7869.4923      577          
   2325000   326.31789     -7857.208       577          
   2326000   320.41012     -7856.0581      577          
   2327000   287.54422     -7863.8199      577          
   2328000   366.88466     -7843.6145      577          
   2329000   271.00955     -7872.5352      577          
   2330000   330.2158      -7858.2282      577          
   2331000   271.02547     -7871.7403      577          
   2332000   318.52156     -7858.6021      577          
   2333000   282.44791     -7866.0554      577          
   2334000   314.81936     -7857.1739      577          
   2335000   299.45248     -7864.6912      577          
   2336000   380.83814     -7838.5896      577          
   2337000   320.30297     -7853.7346      577          
   2338000   341.74035     -7849.4928      577          
   2339000   303.87769     -7861.3868      577          
   2340000   309.4355      -7861.389       577          
   2341000   311.33097     -7861.0241      577          
   2342000   292.24324     -7861.2084      577          
   2343000   329.04156     -7859.0154      577          
   2344000   277.08548     -7868.8493      577          
   2345000   307.44451     -7858.2725      577          
   2346000   270.33383     -7869.2807      577          
   2347000   286.94902     -7865.1539      577          
   2348000   340.06511     -7848.2377      577          
   2349000   316.91914     -7859.5429      577          
   2350000   324.7073      -7857.9714      577          
   2351000   301.55327     -7859.7589      577          
   2352000   295.68695     -7861.3078      577          
   2353000   302.62719     -7860.7205      577          
   2354000   281.71857     -7868.9153      577          
   2355000   345.96266     -7847.2466      577          
   2356000   339.01234     -7850.3306      577          
   2357000   311.09437     -7857.083       577          
   2358000   334.63528     -7852.2069      577          
   2359000   271.75342     -7870.6104      577          
   2360000   354.29579     -7844.0182      577          
   2361000   292.09221     -7864.7472      577          
   2362000   340.94109     -7852.7262      577          
   2363000   323.26406     -7856.4032      577          
   2364000   257.6077      -7874.1839      577          
   2365000   271.20608     -7868.6564      577          
   2366000   311.69819     -7859.9001      577          
   2367000   319.70381     -7856.2975      577          
   2368000   302.36333     -7857.9717      577          
   2369000   343.0184      -7849.2887      577          
   2370000   301.7158      -7863.3899      577          
   2371000   307.48755     -7858.5665      577          
   2372000   331.57442     -7853.5093      577          
   2373000   293.50663     -7866.6223      577          
   2374000   324.12214     -7859.3038      577          
   2375000   286.19425     -7863.1856      577          
   2376000   284.50149     -7871.6717      577          
   2377000   341.18492     -7853.2171      577          
   2378000   286.73746     -7866.606       577          
   2379000   297.2839      -7862.9381      577          
   2380000   317.54442     -7855.5792      577          
   2381000   286.54997     -7865.2693      577          
   2382000   280.96585     -7868.8142      577          
   2383000   360.20022     -7847.4176      577          
   2384000   346.34283     -7849.8145      577          
   2385000   301.456       -7862.8119      577          
   2386000   332.73469     -7861.5496      577          
   2387000   341.23896     -7854.6109      577          
   2388000   329.54607     -7853.9648      577          
   2389000   338.75305     -7851.4285      577          
   2390000   297.99074     -7864.0781      577          
   2391000   285.82427     -7866.3629      577          
   2392000   286.61623     -7862.6563      577          
   2393000   375.16889     -7846.8748      577          
   2394000   307.37241     -7857.0022      577          
   2395000   291.8318      -7865.8955      577          
   2396000   320.3183      -7861.5506      577          
   2397000   309.38653     -7860.0192      577          
   2398000   324.94764     -7855.658       577          
   2399000   322.02803     -7857.477       577          
   2400000   319.58262     -7859.5383      578          
   2401000   272.65546     -7882.7545      578          
   2402000   336.40873     -7863.6519      578          
   2403000   309.53778     -7869.2398      578          
   2404000   291.8272      -7879.2248      578          
   2405000   335.30828     -7869.8626      578          
   2406000   309.14664     -7871.9942      578          
   2407000   303.81654     -7870.2877      578          
   2408000   274.45014     -7878.4138      578          
   2409000   280.7285      -7882.6759      578          
   2410000   346.40436     -7861.8329      578          
   2411000   317.97924     -7868.0157      578          
   2412000   311.84794     -7865.8248      578          
   2413000   287.16402     -7875.1902      578          
   2414000   308.06922     -7873.4389      578          
   2415000   276.44935     -7883.7808      578          
   2416000   291.22705     -7888.5086      579          
   2417000   291.49758     -7884.7325      579          
   2418000   319.51931     -7882.1203      579          
   2419000   287.01073     -7898.1239      579          
   2420000   332.98978     -7879.5427      579          
   2421000   344.5015      -7874.6223      579          
   2422000   292.00779     -7890.1617      579          
   2423000   382.49256     -7868.4917      579          
   2424000   307.14258     -7884.168       579          
   2425000   324.40911     -7884.0284      579          
   2426000   317.89212     -7885.505       579          
   2427000   265.09606     -7895.3695      579          
   2428000   301.1096      -7889.3962      579          
   2429000   313.65537     -7881.6198      579          
   2430000   292.48381     -7887.1577      579          
   2431000   287.72431     -7889.7332      579          
   2432000   294.56491     -7889.7052      579          
   2433000   284.85        -7893.5662      579          
   2434000   270.60351     -7893.0351      579          
   2435000   311.50354     -7881.9688      579          
   2436000   336.69621     -7873.0883      579          
   2437000   345.26239     -7878.7439      579          
   2438000   278.37469     -7898.8132      579          
   2439000   321.22854     -7876.7727      579          
   2440000   276.37613     -7894.6846      579          
   2441000   318.89819     -7886.6689      579          
   2442000   272.78803     -7898.9127      579          
   2443000   323.94775     -7879.0446      579          
   2444000   350.77458     -7870.6649      579          
   2445000   280.40704     -7891.8559      579          
   2446000   284.44808     -7889.7945      579          
   2447000   334.14879     -7876.5868      579          
   2448000   286.67493     -7891.1307      579          
   2449000   296.89928     -7892.0979      579          
   2450000   263.03065     -7900.0089      579          
   2451000   318.76236     -7880.0586      579          
   2452000   282.99273     -7890.1194      579          
   2453000   315.68218     -7880.0704      579          
   2454000   264.61867     -7902.1993      579          
   2455000   310.90836     -7885.3737      579          
   2456000   282.89912     -7893.8674      579          
   2457000   324.90238     -7880.8595      579          
   2458000   278.59958     -7893.4512      579          
   2459000   289.66397     -7889.334       579          
   2460000   289.49211     -7893.5439      579          
   2461000   304.29297     -7886.6683      579          
   2462000   272.10254     -7896.9397      579          
   2463000   340.03826     -7878.5792      579          
   2464000   287.16288     -7891.2508      579          
   2465000   331.47398     -7879.257       579          
   2466000   280.75955     -7893.0833      579          
   2467000   298.83739     -7887.4957      579          
   2468000   326.36825     -7878.354       579          
   2469000   302.97451     -7890.3264      579          
   2470000   313.34513     -7884.4954      579          
   2471000   298.22394     -7883.2607      579          
   2472000   366.67167     -7874.4014      579          
   2473000   243.23852     -7900.0366      579          
   2474000   331.86651     -7880.0918      579          
   2475000   276.39374     -7894.1939      579          
   2476000   331.60079     -7876.7092      579          
   2477000   268.70713     -7897.8842      579          
   2478000   276.63044     -7890.5931      579          
   2479000   309.3174      -7889.0193      579          
   2480000   309.57927     -7885.7694      579          
   2481000   285.49827     -7885.0515      579          
   2482000   302.94269     -7888.802       579          
   2483000   351.34415     -7872.504       579          
   2484000   294.95147     -7888.837       579          
   2485000   341.3736      -7871.9341      579          
   2486000   276.26368     -7891.462       579          
   2487000   257.95815     -7898.4516      579          
   2488000   304.22132     -7887.8851      579          
   2489000   287.8158      -7895.1878      579          
   2490000   317.87646     -7879.1328      579          
   2491000   279.37074     -7893.8219      579          
   2492000   272.0504      -7900.1882      579          
   2493000   301.30275     -7889.4115      579          
   2494000   266.23095     -7899.5311      579          
   2495000   315.15728     -7883.571       579          
   2496000   301.50682     -7890.4765      579          
   2497000   270.02213     -7896.8154      579          
   2498000   292.34154     -7890.2382      579          
   2499000   277.86883     -7896.0346      579          
   2500000   290.15651     -7888.2435      579          
   2501000   306.96987     -7887.9933      579          
   2502000   284.54851     -7895.1131      579          
Loop time of 40997.3 on 8 procs for 2500000 steps with 1737 atoms

Performance: 5.269 ns/day, 4.555 hours/ns, 60.980 timesteps/s, 105.922 katom-step/s
799.9% CPU use with 1 MPI tasks x 8 OpenMP threads

MPI task timing breakdown:
Section |  min time  |  avg time  |  max time  |%varavg| %total
---------------------------------------------------------------
Pair    | 4388       | 4388       | 4388       |   0.0 | 10.70
Bond    | 26.412     | 26.412     | 26.412     |   0.0 |  0.06
Kspace  | 1199.2     | 1199.2     | 1199.2     |   0.0 |  2.93
Neigh   | 216.66     | 216.66     | 216.66     |   0.0 |  0.53
Comm    | 163.89     | 163.89     | 163.89     |   0.0 |  0.40
Output  | 0.11967    | 0.11967    | 0.11967    |   0.0 |  0.00
Modify  | 34991      | 34991      | 34991      |   0.0 | 85.35
Other   |            | 11.89      |            |       |  0.03

Nlocal:           1737 ave        1737 max        1737 min
Histogram: 1 0 0 0 0 0 0 0 0 0
Nghost:          14716 ave       14716 max       14716 min
Histogram: 1 0 0 0 0 0 0 0 0 0
Neighs:    1.10873e+06 ave 1.10873e+06 max 1.10873e+06 min
Histogram: 1 0 0 0 0 0 0 0 0 0

Total # of neighbors = 1108727
Ave neighs/atom = 638.29994
Ave special neighs/atom = 2
Neighbor list builds = 2550622
Dangerous builds = 0
Total wall time: 11:23:17
